LAMMPS (29 Sep 2021)
clear
units real
boundary p p p
atom_style full


neighbor 2.0 bin


# ------------------------ MOF-FF FORCE FIELD ------------------------------


pair_style buck6d/coul/gauss/long     0.9000     0.9000    12.0000
box tilt large
dihedral_style opls
improper_style inversion/harmonic
read_data 		C4_222.data
Reading data file ...
  orthogonal box = (0.0000000 0.0000000 0.0000000) to (51.703312 51.703314 51.703314)
  2 by 4 by 7 MPI processor grid
  reading atoms ...
  8384 atoms
  scanning bonds ...
  4 = max bonds/atom
  scanning angles ...
  6 = max angles/atom
  scanning dihedrals ...
  36 = max dihedrals/atom
  scanning impropers ...
  2 = max impropers/atom
  reading bonds ...
  9088 bonds
  reading angles ...
  16896 angles
  reading dihedrals ...
  24576 dihedrals
  reading impropers ...
  1536 impropers
Finding 1-2 1-3 1-4 neighbors ...
  special bond factors lj:    0        0        0       
  special bond factors coul:  0        0        0       
     4 = max # of 1-2 neighbors
    12 = max # of 1-3 neighbors
    24 = max # of 1-4 neighbors
    22 = max # of special neighbors
  special bonds CPU = 0.003 seconds
  read_data CPU = 0.085 seconds
include			parameters.dat.txt

pair_coeff     1     1           50784       2.6200873       5731.7134        39.94184      0.34105377    # buck6d->(zn4_o4@zn4o)|Zn4O_benz/gaussian->(zn4_o4@zn4o)|Zn4O_benz <--> buck6d->(zn4_o4@zn4o)|Zn4O_benz/gaussian->(zn4_o4@zn4o)|Zn4O_benz
pair_coeff     1     2       13670.593       3.1662269       495.43572       2.8200727      0.45538243    # buck6d->(zn4_o4@zn4o)|Zn4O_benz/gaussian->(zn4_o4@zn4o)|Zn4O_benz <--> buck6d->(h1_c1@ph)|benzene/gaussian->(h1_c1@ph)|benzene
pair_coeff     1     3       13670.593       3.1662269       495.43572       2.8200727      0.45538243    # buck6d->(zn4_o4@zn4o)|Zn4O_benz/gaussian->(zn4_o4@zn4o)|Zn4O_benz <--> buck6d->(h1_c1@me)|butane/gaussian->(h1_c1@me)|butane
pair_coeff     1     4       22875.278       2.8235294       1648.4078        14.02027      0.42066066    # buck6d->(zn4_o4@zn4o)|Zn4O_benz/gaussian->(zn4_o4@zn4o)|Zn4O_benz <--> buck6d->(c3_c2h1@ph)|benzene/gaussian->(c3_c3@ph)|Zn4O_benz
pair_coeff     1     5       22875.278       2.8235294       1648.4078        14.02027      0.42066187    # buck6d->(zn4_o4@zn4o)|Zn4O_benz/gaussian->(zn4_o4@zn4o)|Zn4O_benz <--> buck6d->(c3_c2h1@ph)|benzene/gaussian->(c3_c2h1@ph)|benzene
pair_coeff     1     6       22875.278       2.8235294       1648.4078        14.02027      0.42066187    # buck6d->(zn4_o4@zn4o)|Zn4O_benz/gaussian->(zn4_o4@zn4o)|Zn4O_benz <--> buck6d->(c3_c2o1@ph)|ph-O-butyl/gaussian->(c3_c2o1@ph)|ph-O-butyl
pair_coeff     1     7       22875.278       2.8368794       1602.4086       13.124311      0.42066066    # buck6d->(zn4_o4@zn4o)|Zn4O_benz/gaussian->(zn4_o4@zn4o)|Zn4O_benz <--> buck6d->(c3_c1o2@co2)|Zn4O_benz/gaussian->(c3_c1o2@co2)|Zn4O_benz
pair_coeff     1     8       15883.794       2.7713626       1280.1071       18.202956      0.42066187    # buck6d->(zn4_o4@zn4o)|Zn4O_benz/gaussian->(zn4_o4@zn4o)|Zn4O_benz <--> buck6d->(c4_c2h2@me)|butane/gaussian->(c4_c2h2@me)|butane
pair_coeff     1     9       15883.794       2.7713626       1280.1071       18.202956      0.42066187    # buck6d->(zn4_o4@zn4o)|Zn4O_benz/gaussian->(zn4_o4@zn4o)|Zn4O_benz <--> buck6d->(c4_c1h2o1@me)|ph-O-butyl/gaussian->(c4_c1h2o1@me)|ph-O-butyl
pair_coeff     1    10       15883.794       2.7713626       1280.1071       18.202956      0.42066187    # buck6d->(zn4_o4@zn4o)|Zn4O_benz/gaussian->(zn4_o4@zn4o)|Zn4O_benz <--> buck6d->(c4_c1h3@me)|butane/gaussian->(c4_c1h3@me)|butane
pair_coeff     1    11       23480.015        2.919708       1383.9296       8.7719648      0.42456807    # buck6d->(zn4_o4@zn4o)|Zn4O_benz/gaussian->(zn4_o4@zn4o)|Zn4O_benz <--> buck6d->(o4_zn4@zn4o)|Zn4O_benz/gaussian->(o4_zn4@zn4o)|Zn4O_benz
pair_coeff     1    12       23480.015        2.919708       1383.9296       8.7719648      0.42457209    # buck6d->(zn4_o4@zn4o)|Zn4O_benz/gaussian->(zn4_o4@zn4o)|Zn4O_benz <--> buck6d->(o2_c2@eth)|ph-O-butyl/gaussian->(o2_c2@eth)|ph-O-butyl
pair_coeff     1    13       23480.015        2.919708       1383.9296       8.7719648      0.42456807    # buck6d->(zn4_o4@zn4o)|Zn4O_benz/gaussian->(zn4_o4@zn4o)|Zn4O_benz <--> buck6d->(o2_c1zn1@co2)|Zn4O_benz/gaussian->(o2_c1zn1@co2)|Zn4O_benz
pair_coeff     2     2            3680               4          32.805      0.10690769       0.9771554    # buck6d->(h1_c1@ph)|benzene/gaussian->(h1_c1@ph)|benzene <--> buck6d->(h1_c1@ph)|benzene/gaussian->(h1_c1@ph)|benzene
pair_coeff     2     3            3680               4          32.805      0.10690769       0.9771554    # buck6d->(h1_c1@ph)|benzene/gaussian->(h1_c1@ph)|benzene <--> buck6d->(h1_c1@me)|butane/gaussian->(h1_c1@me)|butane
pair_coeff     2     4       6157.8178       3.4682081       129.19572      0.78772886      0.73005908    # buck6d->(h1_c1@ph)|benzene/gaussian->(h1_c1@ph)|benzene <--> buck6d->(c3_c2h1@ph)|benzene/gaussian->(c3_c3@ph)|Zn4O_benz
pair_coeff     2     5       6157.8178       3.4682081       129.19572      0.78772886      0.73006542    # buck6d->(h1_c1@ph)|benzene/gaussian->(h1_c1@ph)|benzene <--> buck6d->(c3_c2h1@ph)|benzene/gaussian->(c3_c2h1@ph)|benzene
pair_coeff     2     6       6157.8178       3.4682081       129.19572      0.78772886      0.73006542    # buck6d->(h1_c1@ph)|benzene/gaussian->(h1_c1@ph)|benzene <--> buck6d->(c3_c2o1@ph)|ph-O-butyl/gaussian->(c3_c2o1@ph)|ph-O-butyl
pair_coeff     2     7       6157.8178       3.4883721        124.7792      0.72632262      0.73005908    # buck6d->(h1_c1@ph)|benzene/gaussian->(h1_c1@ph)|benzene <--> buck6d->(c3_c1o2@co2)|Zn4O_benz/gaussian->(c3_c1o2@co2)|Zn4O_benz
pair_coeff     2     8       4275.7736       3.3898305       102.89611       1.0848184      0.73006542    # buck6d->(h1_c1@ph)|benzene/gaussian->(h1_c1@ph)|benzene <--> buck6d->(c4_c2h2@me)|butane/gaussian->(c4_c2h2@me)|butane
pair_coeff     2     9       4275.7736       3.3898305       102.89611       1.0848184      0.73006542    # buck6d->(h1_c1@ph)|benzene/gaussian->(h1_c1@ph)|benzene <--> buck6d->(c4_c1h2o1@me)|ph-O-butyl/gaussian->(c4_c1h2o1@me)|ph-O-butyl
pair_coeff     2    10       4275.7736       3.3898305       102.89611       1.0848184      0.73006542    # buck6d->(h1_c1@ph)|benzene/gaussian->(h1_c1@ph)|benzene <--> buck6d->(c4_c1h3@me)|butane/gaussian->(c4_c1h3@me)|butane
pair_coeff     2    11       6320.6076       3.6144578       103.50278      0.44181916      0.75107727    # buck6d->(h1_c1@ph)|benzene/gaussian->(h1_c1@ph)|benzene <--> buck6d->(o4_zn4@zn4o)|Zn4O_benz/gaussian->(o4_zn4@zn4o)|Zn4O_benz
pair_coeff     2    12       6320.6076       3.6144578       103.50278      0.44181916      0.75109952    # buck6d->(h1_c1@ph)|benzene/gaussian->(h1_c1@ph)|benzene <--> buck6d->(o2_c2@eth)|ph-O-butyl/gaussian->(o2_c2@eth)|ph-O-butyl
pair_coeff     2    13       6320.6076       3.6144578       103.50278      0.44181916      0.75107727    # buck6d->(h1_c1@ph)|benzene/gaussian->(h1_c1@ph)|benzene <--> buck6d->(o2_c1zn1@co2)|Zn4O_benz/gaussian->(o2_c1zn1@co2)|Zn4O_benz
pair_coeff     3     3            3680               4          32.805      0.10690769       0.9771554    # buck6d->(h1_c1@me)|butane/gaussian->(h1_c1@me)|butane <--> buck6d->(h1_c1@me)|butane/gaussian->(h1_c1@me)|butane
pair_coeff     3     4       6157.8178       3.4682081       129.19572      0.78772886      0.73005908    # buck6d->(h1_c1@me)|butane/gaussian->(h1_c1@me)|butane <--> buck6d->(c3_c2h1@ph)|benzene/gaussian->(c3_c3@ph)|Zn4O_benz
pair_coeff     3     5       6157.8178       3.4682081       129.19572      0.78772886      0.73006542    # buck6d->(h1_c1@me)|butane/gaussian->(h1_c1@me)|butane <--> buck6d->(c3_c2h1@ph)|benzene/gaussian->(c3_c2h1@ph)|benzene
pair_coeff     3     6       6157.8178       3.4682081       129.19572      0.78772886      0.73006542    # buck6d->(h1_c1@me)|butane/gaussian->(h1_c1@me)|butane <--> buck6d->(c3_c2o1@ph)|ph-O-butyl/gaussian->(c3_c2o1@ph)|ph-O-butyl
pair_coeff     3     7       6157.8178       3.4883721        124.7792      0.72632262      0.73005908    # buck6d->(h1_c1@me)|butane/gaussian->(h1_c1@me)|butane <--> buck6d->(c3_c1o2@co2)|Zn4O_benz/gaussian->(c3_c1o2@co2)|Zn4O_benz
pair_coeff     3     8       4275.7736       3.3898305       102.89611       1.0848184      0.73006542    # buck6d->(h1_c1@me)|butane/gaussian->(h1_c1@me)|butane <--> buck6d->(c4_c2h2@me)|butane/gaussian->(c4_c2h2@me)|butane
pair_coeff     3     9       4275.7736       3.3898305       102.89611       1.0848184      0.73006542    # buck6d->(h1_c1@me)|butane/gaussian->(h1_c1@me)|butane <--> buck6d->(c4_c1h2o1@me)|ph-O-butyl/gaussian->(c4_c1h2o1@me)|ph-O-butyl
pair_coeff     3    10       4275.7736       3.3898305       102.89611       1.0848184      0.73006542    # buck6d->(h1_c1@me)|butane/gaussian->(h1_c1@me)|butane <--> buck6d->(c4_c1h3@me)|butane/gaussian->(c4_c1h3@me)|butane
pair_coeff     3    11       6320.6076       3.6144578       103.50278      0.44181916      0.75107727    # buck6d->(h1_c1@me)|butane/gaussian->(h1_c1@me)|butane <--> buck6d->(o4_zn4@zn4o)|Zn4O_benz/gaussian->(o4_zn4@zn4o)|Zn4O_benz
pair_coeff     3    12       6320.6076       3.6144578       103.50278      0.44181916      0.75109952    # buck6d->(h1_c1@me)|butane/gaussian->(h1_c1@me)|butane <--> buck6d->(o2_c2@eth)|ph-O-butyl/gaussian->(o2_c2@eth)|ph-O-butyl
pair_coeff     3    13       6320.6076       3.6144578       103.50278      0.44181916      0.75107727    # buck6d->(h1_c1@me)|butane/gaussian->(h1_c1@me)|butane <--> buck6d->(o2_c1zn1@co2)|Zn4O_benz/gaussian->(o2_c1zn1@co2)|Zn4O_benz
pair_coeff     4     4           10304       3.0612245       457.17971       4.5218516      0.60800239    # buck6d->(c3_c2h1@ph)|benzene/gaussian->(c3_c3@ph)|Zn4O_benz <--> buck6d->(c3_c2h1@ph)|benzene/gaussian->(c3_c3@ph)|Zn4O_benz
pair_coeff     4     5           10304       3.0612245       457.17971       4.5218516      0.60800605    # buck6d->(c3_c2h1@ph)|benzene/gaussian->(c3_c3@ph)|Zn4O_benz <--> buck6d->(c3_c2h1@ph)|benzene/gaussian->(c3_c2h1@ph)|benzene
pair_coeff     4     6           10304       3.0612245       457.17971       4.5218516      0.60800605    # buck6d->(c3_c2h1@ph)|benzene/gaussian->(c3_c3@ph)|Zn4O_benz <--> buck6d->(c3_c2o1@ph)|ph-O-butyl/gaussian->(c3_c2o1@ph)|ph-O-butyl
pair_coeff     4     7           10304       3.0769231       443.36171       4.2093581      0.60800239    # buck6d->(c3_c2h1@ph)|benzene/gaussian->(c3_c3@ph)|Zn4O_benz <--> buck6d->(c3_c1o2@co2)|Zn4O_benz/gaussian->(c3_c1o2@co2)|Zn4O_benz
pair_coeff     4     8       7154.7377               3       358.35904               6      0.60800605    # buck6d->(c3_c2h1@ph)|benzene/gaussian->(c3_c3@ph)|Zn4O_benz <--> buck6d->(c4_c2h2@me)|butane/gaussian->(c4_c2h2@me)|butane
pair_coeff     4     9       7154.7377               3       358.35904               6      0.60800605    # buck6d->(c3_c2h1@ph)|benzene/gaussian->(c3_c3@ph)|Zn4O_benz <--> buck6d->(c4_c1h2o1@me)|ph-O-butyl/gaussian->(c4_c1h2o1@me)|ph-O-butyl
pair_coeff     4    10       7154.7377               3       358.35904               6      0.60800605    # buck6d->(c3_c2h1@ph)|benzene/gaussian->(c3_c3@ph)|Zn4O_benz <--> buck6d->(c4_c1h3@me)|butane/gaussian->(c4_c1h3@me)|butane
pair_coeff     4    11       10576.399       3.1746032       377.27092       2.7176691      0.61998309    # buck6d->(c3_c2h1@ph)|benzene/gaussian->(c3_c3@ph)|Zn4O_benz <--> buck6d->(o4_zn4@zn4o)|Zn4O_benz/gaussian->(o4_zn4@zn4o)|Zn4O_benz
pair_coeff     4    12       10576.399       3.1746032       377.27092       2.7176691       0.6199956    # buck6d->(c3_c2h1@ph)|benzene/gaussian->(c3_c3@ph)|Zn4O_benz <--> buck6d->(o2_c2@eth)|ph-O-butyl/gaussian->(o2_c2@eth)|ph-O-butyl
pair_coeff     4    13       10576.399       3.1746032       377.27092       2.7176691      0.61998309    # buck6d->(c3_c2h1@ph)|benzene/gaussian->(c3_c3@ph)|Zn4O_benz <--> buck6d->(o2_c1zn1@co2)|Zn4O_benz/gaussian->(o2_c1zn1@co2)|Zn4O_benz
pair_coeff     5     5           10304       3.0612245       457.17971       4.5218516      0.60800971    # buck6d->(c3_c2h1@ph)|benzene/gaussian->(c3_c2h1@ph)|benzene <--> buck6d->(c3_c2h1@ph)|benzene/gaussian->(c3_c2h1@ph)|benzene
pair_coeff     5     6           10304       3.0612245       457.17971       4.5218516      0.60800971    # buck6d->(c3_c2h1@ph)|benzene/gaussian->(c3_c2h1@ph)|benzene <--> buck6d->(c3_c2o1@ph)|ph-O-butyl/gaussian->(c3_c2o1@ph)|ph-O-butyl
pair_coeff     5     7           10304       3.0769231       443.36171       4.2093581      0.60800605    # buck6d->(c3_c2h1@ph)|benzene/gaussian->(c3_c2h1@ph)|benzene <--> buck6d->(c3_c1o2@co2)|Zn4O_benz/gaussian->(c3_c1o2@co2)|Zn4O_benz
pair_coeff     5     8       7154.7377               3       358.35904               6      0.60800971    # buck6d->(c3_c2h1@ph)|benzene/gaussian->(c3_c2h1@ph)|benzene <--> buck6d->(c4_c2h2@me)|butane/gaussian->(c4_c2h2@me)|butane
pair_coeff     5     9       7154.7377               3       358.35904               6      0.60800971    # buck6d->(c3_c2h1@ph)|benzene/gaussian->(c3_c2h1@ph)|benzene <--> buck6d->(c4_c1h2o1@me)|ph-O-butyl/gaussian->(c4_c1h2o1@me)|ph-O-butyl
pair_coeff     5    10       7154.7377               3       358.35904               6      0.60800971    # buck6d->(c3_c2h1@ph)|benzene/gaussian->(c3_c2h1@ph)|benzene <--> buck6d->(c4_c1h3@me)|butane/gaussian->(c4_c1h3@me)|butane
pair_coeff     5    11       10576.399       3.1746032       377.27092       2.7176691      0.61998697    # buck6d->(c3_c2h1@ph)|benzene/gaussian->(c3_c2h1@ph)|benzene <--> buck6d->(o4_zn4@zn4o)|Zn4O_benz/gaussian->(o4_zn4@zn4o)|Zn4O_benz
pair_coeff     5    12       10576.399       3.1746032       377.27092       2.7176691      0.61999948    # buck6d->(c3_c2h1@ph)|benzene/gaussian->(c3_c2h1@ph)|benzene <--> buck6d->(o2_c2@eth)|ph-O-butyl/gaussian->(o2_c2@eth)|ph-O-butyl
pair_coeff     5    13       10576.399       3.1746032       377.27092       2.7176691      0.61998697    # buck6d->(c3_c2h1@ph)|benzene/gaussian->(c3_c2h1@ph)|benzene <--> buck6d->(o2_c1zn1@co2)|Zn4O_benz/gaussian->(o2_c1zn1@co2)|Zn4O_benz
pair_coeff     6     6           10304       3.0612245       457.17971       4.5218516      0.60800971    # buck6d->(c3_c2o1@ph)|ph-O-butyl/gaussian->(c3_c2o1@ph)|ph-O-butyl <--> buck6d->(c3_c2o1@ph)|ph-O-butyl/gaussian->(c3_c2o1@ph)|ph-O-butyl
pair_coeff     6     7           10304       3.0769231       443.36171       4.2093581      0.60800605    # buck6d->(c3_c2o1@ph)|ph-O-butyl/gaussian->(c3_c2o1@ph)|ph-O-butyl <--> buck6d->(c3_c1o2@co2)|Zn4O_benz/gaussian->(c3_c1o2@co2)|Zn4O_benz
pair_coeff     6     8       7154.7377               3       358.35904               6      0.60800971    # buck6d->(c3_c2o1@ph)|ph-O-butyl/gaussian->(c3_c2o1@ph)|ph-O-butyl <--> buck6d->(c4_c2h2@me)|butane/gaussian->(c4_c2h2@me)|butane
pair_coeff     6     9       7154.7377               3       358.35904               6      0.60800971    # buck6d->(c3_c2o1@ph)|ph-O-butyl/gaussian->(c3_c2o1@ph)|ph-O-butyl <--> buck6d->(c4_c1h2o1@me)|ph-O-butyl/gaussian->(c4_c1h2o1@me)|ph-O-butyl
pair_coeff     6    10       7154.7377               3       358.35904               6      0.60800971    # buck6d->(c3_c2o1@ph)|ph-O-butyl/gaussian->(c3_c2o1@ph)|ph-O-butyl <--> buck6d->(c4_c1h3@me)|butane/gaussian->(c4_c1h3@me)|butane
pair_coeff     6    11       10576.399       3.1746032       377.27092       2.7176691      0.61998697    # buck6d->(c3_c2o1@ph)|ph-O-butyl/gaussian->(c3_c2o1@ph)|ph-O-butyl <--> buck6d->(o4_zn4@zn4o)|Zn4O_benz/gaussian->(o4_zn4@zn4o)|Zn4O_benz
pair_coeff     6    12       10576.399       3.1746032       377.27092       2.7176691      0.61999948    # buck6d->(c3_c2o1@ph)|ph-O-butyl/gaussian->(c3_c2o1@ph)|ph-O-butyl <--> buck6d->(o2_c2@eth)|ph-O-butyl/gaussian->(o2_c2@eth)|ph-O-butyl
pair_coeff     6    13       10576.399       3.1746032       377.27092       2.7176691      0.61998697    # buck6d->(c3_c2o1@ph)|ph-O-butyl/gaussian->(c3_c2o1@ph)|ph-O-butyl <--> buck6d->(o2_c1zn1@co2)|Zn4O_benz/gaussian->(o2_c1zn1@co2)|Zn4O_benz
pair_coeff     7     7           10304       3.0927835       429.89352       3.9170177      0.60800239    # buck6d->(c3_c1o2@co2)|Zn4O_benz/gaussian->(c3_c1o2@co2)|Zn4O_benz <--> buck6d->(c3_c1o2@co2)|Zn4O_benz/gaussian->(c3_c1o2@co2)|Zn4O_benz
pair_coeff     7     8       7154.7377       3.0150754       347.74176       5.5933807      0.60800605    # buck6d->(c3_c1o2@co2)|Zn4O_benz/gaussian->(c3_c1o2@co2)|Zn4O_benz <--> buck6d->(c4_c2h2@me)|butane/gaussian->(c4_c2h2@me)|butane
pair_coeff     7     9       7154.7377       3.0150754       347.74176       5.5933807      0.60800605    # buck6d->(c3_c1o2@co2)|Zn4O_benz/gaussian->(c3_c1o2@co2)|Zn4O_benz <--> buck6d->(c4_c1h2o1@me)|ph-O-butyl/gaussian->(c4_c1h2o1@me)|ph-O-butyl
pair_coeff     7    10       7154.7377       3.0150754       347.74176       5.5933807      0.60800605    # buck6d->(c3_c1o2@co2)|Zn4O_benz/gaussian->(c3_c1o2@co2)|Zn4O_benz <--> buck6d->(c4_c1h3@me)|butane/gaussian->(c4_c1h3@me)|butane
pair_coeff     7    11       10576.399       3.1914894       365.45138       2.5231391      0.61998309    # buck6d->(c3_c1o2@co2)|Zn4O_benz/gaussian->(c3_c1o2@co2)|Zn4O_benz <--> buck6d->(o4_zn4@zn4o)|Zn4O_benz/gaussian->(o4_zn4@zn4o)|Zn4O_benz
pair_coeff     7    12       10576.399       3.1914894       365.45138       2.5231391       0.6199956    # buck6d->(c3_c1o2@co2)|Zn4O_benz/gaussian->(c3_c1o2@co2)|Zn4O_benz <--> buck6d->(o2_c2@eth)|ph-O-butyl/gaussian->(o2_c2@eth)|ph-O-butyl
pair_coeff     7    13       10576.399       3.1914894       365.45138       2.5231391      0.61998309    # buck6d->(c3_c1o2@co2)|Zn4O_benz/gaussian->(c3_c1o2@co2)|Zn4O_benz <--> buck6d->(o2_c1zn1@co2)|Zn4O_benz/gaussian->(o2_c1zn1@co2)|Zn4O_benz
pair_coeff     8     8            4968       2.9411765       280.22525       7.9168726      0.60800971    # buck6d->(c4_c2h2@me)|butane/gaussian->(c4_c2h2@me)|butane <--> buck6d->(c4_c2h2@me)|butane/gaussian->(c4_c2h2@me)|butane
pair_coeff     8     9            4968       2.9411765       280.22525       7.9168726      0.60800971    # buck6d->(c4_c2h2@me)|butane/gaussian->(c4_c2h2@me)|butane <--> buck6d->(c4_c1h2o1@me)|ph-O-butyl/gaussian->(c4_c1h2o1@me)|ph-O-butyl
pair_coeff     8    10            4968       2.9411765       280.22525       7.9168726      0.60800971    # buck6d->(c4_c2h2@me)|butane/gaussian->(c4_c2h2@me)|butane <--> buck6d->(c4_c1h3@me)|butane/gaussian->(c4_c1h3@me)|butane
pair_coeff     8    11       7343.8824       3.1088083       297.03952       3.6436247      0.61998697    # buck6d->(c4_c2h2@me)|butane/gaussian->(c4_c2h2@me)|butane <--> buck6d->(o4_zn4@zn4o)|Zn4O_benz/gaussian->(o4_zn4@zn4o)|Zn4O_benz
pair_coeff     8    12       7343.8824       3.1088083       297.03952       3.6436247      0.61999948    # buck6d->(c4_c2h2@me)|butane/gaussian->(c4_c2h2@me)|butane <--> buck6d->(o2_c2@eth)|ph-O-butyl/gaussian->(o2_c2@eth)|ph-O-butyl
pair_coeff     8    13       7343.8824       3.1088083       297.03952       3.6436247      0.61998697    # buck6d->(c4_c2h2@me)|butane/gaussian->(c4_c2h2@me)|butane <--> buck6d->(o2_c1zn1@co2)|Zn4O_benz/gaussian->(o2_c1zn1@co2)|Zn4O_benz
pair_coeff     9     9            4968       2.9411765       280.22525       7.9168726      0.60800971    # buck6d->(c4_c1h2o1@me)|ph-O-butyl/gaussian->(c4_c1h2o1@me)|ph-O-butyl <--> buck6d->(c4_c1h2o1@me)|ph-O-butyl/gaussian->(c4_c1h2o1@me)|ph-O-butyl
pair_coeff     9    10            4968       2.9411765       280.22525       7.9168726      0.60800971    # buck6d->(c4_c1h2o1@me)|ph-O-butyl/gaussian->(c4_c1h2o1@me)|ph-O-butyl <--> buck6d->(c4_c1h3@me)|butane/gaussian->(c4_c1h3@me)|butane
pair_coeff     9    11       7343.8824       3.1088083       297.03952       3.6436247      0.61998697    # buck6d->(c4_c1h2o1@me)|ph-O-butyl/gaussian->(c4_c1h2o1@me)|ph-O-butyl <--> buck6d->(o4_zn4@zn4o)|Zn4O_benz/gaussian->(o4_zn4@zn4o)|Zn4O_benz
pair_coeff     9    12       7343.8824       3.1088083       297.03952       3.6436247      0.61999948    # buck6d->(c4_c1h2o1@me)|ph-O-butyl/gaussian->(c4_c1h2o1@me)|ph-O-butyl <--> buck6d->(o2_c2@eth)|ph-O-butyl/gaussian->(o2_c2@eth)|ph-O-butyl
pair_coeff     9    13       7343.8824       3.1088083       297.03952       3.6436247      0.61998697    # buck6d->(c4_c1h2o1@me)|ph-O-butyl/gaussian->(c4_c1h2o1@me)|ph-O-butyl <--> buck6d->(o2_c1zn1@co2)|Zn4O_benz/gaussian->(o2_c1zn1@co2)|Zn4O_benz
pair_coeff    10    10            4968       2.9411765       280.22525       7.9168726      0.60800971    # buck6d->(c4_c1h3@me)|butane/gaussian->(c4_c1h3@me)|butane <--> buck6d->(c4_c1h3@me)|butane/gaussian->(c4_c1h3@me)|butane
pair_coeff    10    11       7343.8824       3.1088083       297.03952       3.6436247      0.61998697    # buck6d->(c4_c1h3@me)|butane/gaussian->(c4_c1h3@me)|butane <--> buck6d->(o4_zn4@zn4o)|Zn4O_benz/gaussian->(o4_zn4@zn4o)|Zn4O_benz
pair_coeff    10    12       7343.8824       3.1088083       297.03952       3.6436247      0.61999948    # buck6d->(c4_c1h3@me)|butane/gaussian->(c4_c1h3@me)|butane <--> buck6d->(o2_c2@eth)|ph-O-butyl/gaussian->(o2_c2@eth)|ph-O-butyl
pair_coeff    10    13       7343.8824       3.1088083       297.03952       3.6436247      0.61998697    # buck6d->(c4_c1h3@me)|butane/gaussian->(c4_c1h3@me)|butane <--> buck6d->(o2_c1zn1@co2)|Zn4O_benz/gaussian->(o2_c1zn1@co2)|Zn4O_benz
pair_coeff    11    11           10856       3.2967033        308.7755       1.6022517      0.63270113    # buck6d->(o4_zn4@zn4o)|Zn4O_benz/gaussian->(o4_zn4@zn4o)|Zn4O_benz <--> buck6d->(o4_zn4@zn4o)|Zn4O_benz/gaussian->(o4_zn4@zn4o)|Zn4O_benz
pair_coeff    11    12           10856       3.2967033        308.7755       1.6022517      0.63271443    # buck6d->(o4_zn4@zn4o)|Zn4O_benz/gaussian->(o4_zn4@zn4o)|Zn4O_benz <--> buck6d->(o2_c2@eth)|ph-O-butyl/gaussian->(o2_c2@eth)|ph-O-butyl
pair_coeff    11    13           10856       3.2967033        308.7755       1.6022517      0.63270113    # buck6d->(o4_zn4@zn4o)|Zn4O_benz/gaussian->(o4_zn4@zn4o)|Zn4O_benz <--> buck6d->(o2_c1zn1@co2)|Zn4O_benz/gaussian->(o2_c1zn1@co2)|Zn4O_benz
pair_coeff    12    12           10856       3.2967033        308.7755       1.6022517      0.63272774    # buck6d->(o2_c2@eth)|ph-O-butyl/gaussian->(o2_c2@eth)|ph-O-butyl <--> buck6d->(o2_c2@eth)|ph-O-butyl/gaussian->(o2_c2@eth)|ph-O-butyl
pair_coeff    12    13           10856       3.2967033        308.7755       1.6022517      0.63271443    # buck6d->(o2_c2@eth)|ph-O-butyl/gaussian->(o2_c2@eth)|ph-O-butyl <--> buck6d->(o2_c1zn1@co2)|Zn4O_benz/gaussian->(o2_c1zn1@co2)|Zn4O_benz
pair_coeff    13    13           10856       3.2967033        308.7755       1.6022517      0.63270113    # buck6d->(o2_c1zn1@co2)|Zn4O_benz/gaussian->(o2_c1zn1@co2)|Zn4O_benz <--> buck6d->(o2_c1zn1@co2)|Zn4O_benz/gaussian->(o2_c1zn1@co2)|Zn4O_benz

bond_style hybrid class2 morse harmonic

bond_coeff    13 class2     1.529408   314.283599  -801.423177  1192.116976    # mm3->(c4_c2h2@me,c4_c2h2@me)|butane
bond_coeff     8 class2     1.394074   455.360160 -1161.168407  1727.238006    # mm3->(c3_c2h1@ph,c3_c2o1@ph)|ph-O-butyl
bond_coeff     4 class2     1.101213   365.915223  -933.083819  1387.962181    # mm3->(c4_c2h2@me,h1_c1@me)|butane
bond_coeff     9 class2     1.488000   355.167780  -905.677839  1347.195786    # mm3->(c3_c1o2@co2,c3_c3@ph)|Zn4O_benz
bond_coeff     3 class2     1.094000   390.634200  -996.117210  1481.724350    # mm3->(c3_c2h1@ph,h1_c1@ph)|benzene
bond_coeff     6 class2     1.099390   374.841138  -955.844901  1421.819290    # mm3->(c4_c1h3@me,h1_c1@me)|butane
bond_coeff    10 class2     1.357631   390.806068  -996.555472  1482.376265    # mm3->(c3_c2o1@ph,o2_c2@eth)|ph-O-butyl
bond_coeff     1 morse    50.000000    1.463685     1.987000    # morse->(o4_zn4@zn4o,zn4_o4@zn4o)|Zn4O_benz
bond_coeff    12 class2     1.515294   290.719566  -741.334894  1102.735655    # mm3->(c4_c1h2o1@me,c4_c2h2@me)|ph-O-butyl
bond_coeff     5 class2     1.101119   356.182160  -908.264508  1351.043455    # mm3->(c4_c1h2o1@me,h1_c1@me)|ph-O-butyl
bond_coeff     7 class2     1.394000   509.335200 -1298.804760  1931.972080    # mm3->(c3_c2h1@ph,c3_c2h1@ph)|benzene
bond_coeff    14 class2     1.427071   299.914044  -764.780811  1137.611457    # mm3->(c4_c1h2o1@me,o2_c2@eth)|ph-O-butyl
bond_coeff    15 class2     1.529182   318.631885  -812.511306  1208.610568    # mm3->(c4_c1h3@me,c4_c2h2@me)|butane
bond_coeff     2 morse    50.000000    1.547773     1.917000    # morse->(o2_c1zn1@co2,zn4_o4@zn4o)|Zn4O_benz
bond_coeff    11 class2     1.275000   620.986080 -1583.514504  2355.477825    # mm3->(c3_c1o2@co2,o2_c1zn1@co2)|Zn4O_benz

angle_style hybrid class2/p6 cosine/buck6d

angle_coeff    25 class2/p6      113.257375    69.461048   -55.717548    12.769521    -9.145496    16.468519    # mm3->(c3_c2o1@ph,o2_c2@eth,c4_c1h2o1@me)|ph-O-butyl
angle_coeff    25 class2/p6 bb 0.0 1.0 1.0
angle_coeff    25 class2/p6 ba 0.0 0.0 1.0 1.0
angle_coeff    26 class2/p6      135.606000     6.762360    -5.424366     1.243173    -0.890357     1.603288    # mm3->(c3_c1o2@co2,o2_c1zn1@co2,zn4_o4@zn4o)|Zn4O_benz
angle_coeff    26 class2/p6 bb 0.0 1.0 1.0
angle_coeff    26 class2/p6 ba 0.0 0.0 1.0 1.0
angle_coeff    18 class2/p6      116.818943    25.946625   -20.812849     4.769954    -3.416228     6.151685    # mm3->(h1_c1@me,c4_c1h2o1@me,o2_c2@eth)|ph-O-butyl
angle_coeff    18 class2/p6 bb 0.0 1.0 1.0
angle_coeff    18 class2/p6 ba 0.0 0.0 1.0 1.0
angle_coeff     4 class2/p6      117.296000    57.983640   -46.511050    10.659547    -7.634339    13.747340    # mm3->(c3_c1o2@co2,c3_c3@ph,c3_c2h1@ph)|Zn4O_benz
angle_coeff     4 class2/p6 bb 0.0 1.0 1.0
angle_coeff     4 class2/p6 ba 0.0 0.0 1.0 1.0
angle_coeff     6 class2/p6      120.350000    36.185820   -29.026127     6.652298    -4.764358     8.579296    # mm3->(c3_c2h1@ph,c3_c2h1@ph,h1_c1@ph)|benzene
angle_coeff     6 class2/p6 bb    93.378120     1.394000     1.094000
angle_coeff     6 class2/p6 ba   -25.179000    53.523360     1.394000     1.094000
angle_coeff     1 class2/p6      113.584000     0.000000    -0.000000     0.000000    -0.000000     0.000000    # mm3->(o2_c1zn1@co2,zn4_o4@zn4o,o4_zn4@zn4o)|Zn4O_benz
angle_coeff     1 class2/p6 bb     0.000000     1.917000     1.987000
angle_coeff     1 class2/p6 ba     0.000000     0.000000     1.917000     1.987000
angle_coeff    17 class2/p6      118.378973    29.889438   -23.975541     5.494789    -3.935353     7.086487    # mm3->(c4_c2h2@me,c4_c1h2o1@me,h1_c1@me)|ph-O-butyl
angle_coeff    17 class2/p6 bb 0.0 1.0 1.0
angle_coeff    17 class2/p6 ba 0.0 0.0 1.0 1.0
angle_coeff    23 class2/p6      113.161464    65.779678   -52.764571    12.092749    -8.660793    15.595703    # mm3->(c4_c1h3@me,c4_c2h2@me,c4_c2h2@me)|butane
angle_coeff    23 class2/p6 bb 0.0 1.0 1.0
angle_coeff    23 class2/p6 ba 0.0 0.0 1.0 1.0
angle_coeff    11 class2/p6      123.006000   111.866700   -89.732857    20.565256   -14.728780    26.522474    # mm3->(o2_c1zn1@co2,c3_c1o2@co2,o2_c1zn1@co2)|Zn4O_benz
angle_coeff    11 class2/p6 bb 0.0 1.0 1.0
angle_coeff    11 class2/p6 ba 0.0 0.0 1.0 1.0
angle_coeff    22 class2/p6      110.602540    44.106999   -35.380028     8.108505    -5.807289    10.457328    # mm3->(c4_c1h3@me,c4_c2h2@me,h1_c1@me)|butane
angle_coeff    22 class2/p6 bb 0.0 1.0 1.0
angle_coeff    22 class2/p6 ba 0.0 0.0 1.0 1.0
angle_coeff    13 class2/p6      110.342401    30.766657   -24.679194     5.656055    -4.050851     7.294466    # mm3->(c4_c1h2o1@me,c4_c2h2@me,h1_c1@me)|ph-O-butyl
angle_coeff    13 class2/p6 bb 0.0 1.0 1.0
angle_coeff    13 class2/p6 ba 0.0 0.0 1.0 1.0
angle_coeff     7 class2/p6      117.983314    23.459678   -18.817967     4.312760    -3.088787     5.562055    # mm3->(c3_c2o1@ph,c3_c2h1@ph,h1_c1@ph)|ph-O-butyl
angle_coeff     7 class2/p6 bb 0.0 1.0 1.0
angle_coeff     7 class2/p6 ba 0.0 0.0 1.0 1.0
angle_coeff    16 class2/p6      114.761173    31.409569   -25.194901     5.774246    -4.135499     7.446894    # mm3->(h1_c1@me,c4_c1h2o1@me,h1_c1@me)|ph-O-butyl
angle_coeff    16 class2/p6 bb 0.0 1.0 1.0
angle_coeff    16 class2/p6 ba 0.0 0.0 1.0 1.0
angle_coeff    24 class2/p6      103.992000    50.214120   -40.278800     9.231221    -6.611375    11.905265    # mm3->(zn4_o4@zn4o,o4_zn4@zn4o,zn4_o4@zn4o)|Zn4O_benz
angle_coeff    24 class2/p6 bb     7.625640     1.987000     1.987000
angle_coeff    24 class2/p6 ba    18.416640    18.416640     1.987000     1.987000
angle_coeff    10 class2/p6      116.368000    77.191620   -61.918557    14.190688   -10.163332    18.301360    # mm3->(c3_c3@ph,c3_c1o2@co2,o2_c1zn1@co2)|Zn4O_benz
angle_coeff    10 class2/p6 bb 0.0 1.0 1.0
angle_coeff    10 class2/p6 ba 0.0 0.0 1.0 1.0
angle_coeff    14 class2/p6      110.134130    42.675831   -34.232030     7.845403    -5.618856    10.118012    # mm3->(c4_c2h2@me,c4_c2h2@me,h1_c1@me)|butane
angle_coeff    14 class2/p6 bb 0.0 1.0 1.0
angle_coeff    14 class2/p6 ba 0.0 0.0 1.0 1.0
angle_coeff     2 class2/p6      123.103000     5.755200    -4.616481     1.058020    -0.757751     1.364500    # mm3->(o2_c1zn1@co2,zn4_o4@zn4o,o2_c1zn1@co2)|Zn4O_benz
angle_coeff     2 class2/p6 bb 0.0 1.0 1.0
angle_coeff     2 class2/p6 ba 0.0 0.0 1.0 1.0
angle_coeff     9 class2/p6      144.582528    30.574828   -24.525320     5.620789    -4.025594     7.248986    # mm3->(c3_c2h1@ph,c3_c2o1@ph,c3_c2h1@ph)|ph-O-butyl
angle_coeff     9 class2/p6 bb 0.0 1.0 1.0
angle_coeff     9 class2/p6 ba 0.0 0.0 1.0 1.0
angle_coeff    20 class2/p6      107.691286    37.470927   -30.056964     6.888549    -4.933560     8.883982    # mm3->(h1_c1@me,c4_c1h3@me,h1_c1@me)|butane
angle_coeff    20 class2/p6 bb 0.0 1.0 1.0
angle_coeff    20 class2/p6 ba 0.0 0.0 1.0 1.0
angle_coeff    12 class2/p6      107.271015    38.858990   -31.170386     7.143726    -5.116317     9.213077    # mm3->(h1_c1@me,c4_c2h2@me,h1_c1@me)|butane
angle_coeff    12 class2/p6 bb 0.0 1.0 1.0
angle_coeff    12 class2/p6 ba 0.0 0.0 1.0 1.0
angle_coeff     5 class2/p6      117.296000    57.983640   -46.511050    10.659547    -7.634339    13.747340    # mm3->(c3_c1o2@co2,c3_c3@ph,c3_c2o1@ph)|Zn4O_benz
angle_coeff     5 class2/p6 bb 0.0 1.0 1.0
angle_coeff     5 class2/p6 ba 0.0 0.0 1.0 1.0
angle_coeff    21 class2/p6      110.959949    44.958991   -36.063446     8.265133    -5.919465    10.659326    # mm3->(c4_c2h2@me,c4_c1h3@me,h1_c1@me)|butane
angle_coeff    21 class2/p6 bb 0.0 1.0 1.0
angle_coeff    21 class2/p6 ba 0.0 0.0 1.0 1.0
angle_coeff     8 class2/p6      159.969859     8.440703    -6.770633     1.551715    -1.111334     2.001206    # mm3->(c3_c2h1@ph,c3_c2o1@ph,o2_c2@eth)|ph-O-butyl
angle_coeff     8 class2/p6 bb 0.0 1.0 1.0
angle_coeff     8 class2/p6 ba 0.0 0.0 1.0 1.0
angle_coeff     3 class2/p6      126.007089    47.182599   -37.847093     8.673915    -6.212234    11.186522    # mm3->(c3_c2h1@ph,c3_c2h1@ph,c3_c2o1@ph)|ph-O-butyl
angle_coeff     3 class2/p6 bb 0.0 1.0 1.0
angle_coeff     3 class2/p6 ba 0.0 0.0 1.0 1.0
angle_coeff    15 class2/p6      113.161464    65.779678   -52.764571    12.092749    -8.660793    15.595703    # mm3->(c4_c1h2o1@me,c4_c2h2@me,c4_c2h2@me)|butane
angle_coeff    15 class2/p6 bb 0.0 1.0 1.0
angle_coeff    15 class2/p6 ba 0.0 0.0 1.0 1.0
angle_coeff    19 class2/p6      114.447479    32.354254   -25.952671     5.947914    -4.259880     7.670870    # mm3->(c4_c2h2@me,c4_c1h2o1@me,o2_c2@eth)|ph-O-butyl
angle_coeff    19 class2/p6 bb 0.0 1.0 1.0
angle_coeff    19 class2/p6 ba 0.0 0.0 1.0 1.0

dihedral_style opls

dihedral_coeff     5     0.000000     5.972000     0.000000     0.000000    # cos3->(c3_c2o1@ph,c3_c2h1@ph,c3_c2h1@ph,c3_c2o1@ph)|ph-O-butyl
dihedral_coeff    18     0.000000     3.012000     0.000000     0.000000    # cos3->(c3_c3@ph,c3_c1o2@co2,o2_c1zn1@co2,zn4_o4@zn4o)|Zn4O_benz
dihedral_coeff    19     0.000000     0.076000     0.000000     0.000000    # cos3->(o2_c1zn1@co2,c3_c1o2@co2,o2_c1zn1@co2,zn4_o4@zn4o)|Zn4O_benz
dihedral_coeff     9     0.000000     5.972000     0.000000     0.000000    # cos3->(c3_c2h1@ph,c3_c2o1@ph,c3_c2h1@ph,c3_c2h1@ph)|ph-O-butyl
dihedral_coeff     7     0.000000     0.000000     0.000000     0.000000    # cos3->(c3_c2o1@ph,c3_c2h1@ph,c3_c3@ph,c3_c1o2@co2)|Zn4O_benz
dihedral_coeff    28     0.000000     0.000000     0.010079     0.000000    # cos3->(h1_c1@me,c4_c1h2o1@me,o2_c2@eth,c3_c2o1@ph)|ph-O-butyl
dihedral_coeff    14     0.000000     5.117273     0.000000     0.000000    # cos3->(h1_c1@ph,c3_c2h1@ph,c3_c2o1@ph,c3_c2h1@ph)|ph-O-butyl
dihedral_coeff    21     0.000000     0.000000     0.514450     0.000000    # cos3->(o2_c2@eth,c4_c1h2o1@me,c4_c2h2@me,h1_c1@me)|ph-O-butyl
dihedral_coeff    10     0.000000     5.000000     0.000000     0.000000    # cos3->(c3_c1o2@co2,c3_c2h1@ph,c3_c2o1@ph,o2_c2@eth)|co2-ph-o-me
dihedral_coeff     8     0.000000     6.281542     0.000000     0.000000    # cos3->(c3_c2h1@ph,c3_c2h1@ph,c3_c2o1@ph,o2_c2@eth)|ph-O-prop
dihedral_coeff    11     0.000000     0.000000     0.000000     0.000000    # cos3->(c3_c2h1@ph,c3_c2o1@ph,c3_c3@ph,c3_c1o2@co2)|Zn4O_benz
dihedral_coeff    27    -0.370853    -0.236138     1.970124     0.000000    # cos3->(c4_c1h2o1@me,c4_c2h2@me,c4_c2h2@me,c4_c1h3@me)|butane
dihedral_coeff    31     0.000000     0.000000     0.870477     0.000000    # cos3->(h1_c1@me,c4_c1h3@me,c4_c2h2@me,c4_c2h2@me)|butane
dihedral_coeff    30     0.000000     0.000000     0.343076     0.000000    # cos3->(h1_c1@me,c4_c1h3@me,c4_c2h2@me,h1_c1@me)|butane
dihedral_coeff    16     0.000000     3.664689     0.000000     0.000000    # cos3->(c3_c2h1@ph,c3_c2h1@ph,c3_c2o1@ph,c3_c2h1@ph)|ph-O-butyl
dihedral_coeff    13     0.000000     1.902000     0.000000     0.000000    # cos3->(o2_c1zn1@co2,c3_c1o2@co2,c3_c3@ph,c3_c2o1@ph)|Zn4O_benz
dihedral_coeff    24     0.000000     0.000000     0.302052     0.000000    # cos3->(h1_c1@me,c4_c2h2@me,c4_c2h2@me,h1_c1@me)|butane
dihedral_coeff    29     0.803729    -0.768357     1.298183     0.000000    # cos3->(c4_c2h2@me,c4_c1h2o1@me,o2_c2@eth,c3_c2o1@ph)|ph-O-butyl
dihedral_coeff    23    -1.702642    -0.327922     0.811155     0.000000    # cos3->(o2_c2@eth,c4_c1h2o1@me,c4_c2h2@me,c4_c2h2@me)|ph-O-butyl
dihedral_coeff    25     0.000000     0.000000    -0.052641     0.000000    # cos3->(c4_c1h3@me,c4_c2h2@me,c4_c2h2@me,h1_c1@me)|butane
dihedral_coeff     4     0.000000     6.045595     0.000000     0.000000    # cos3->(c3_c2o1@ph,c3_c2h1@ph,c3_c2h1@ph,h1_c1@ph)|ph-O-butyl
dihedral_coeff     6     0.000000     0.000000     0.000000     0.000000    # cos3->(h1_c1@ph,c3_c2h1@ph,c3_c3@ph,c3_c1o2@co2)|Zn4O_benz
dihedral_coeff    15     0.000000     3.982172     0.000000     0.000000    # cos3->(h1_c1@ph,c3_c2h1@ph,c3_c2o1@ph,o2_c2@eth)|ph-O-butyl
dihedral_coeff     1     0.000000     0.000000     0.000000     0.000000    # cos3->(zn4_o4@zn4o,o4_zn4@zn4o,zn4_o4@zn4o,o2_c1zn1@co2)|Zn4O_benz
dihedral_coeff     3     0.000000     0.000000     0.000000     0.000000    # cos3->(c3_c1o2@co2,o2_c1zn1@co2,zn4_o4@zn4o,o2_c1zn1@co2)|Zn4O_benz
dihedral_coeff    26     0.000000     0.000000    -0.052641     0.000000    # cos3->(c4_c1h2o1@me,c4_c2h2@me,c4_c2h2@me,h1_c1@me)|butane
dihedral_coeff     2     0.000000     0.000000     0.000000     0.000000    # cos3->(c3_c1o2@co2,o2_c1zn1@co2,zn4_o4@zn4o,o4_zn4@zn4o)|Zn4O_benz
dihedral_coeff    17     4.763804     2.750105     0.191432     0.000000    # cos3->(c3_c2h1@ph,c3_c2o1@ph,o2_c2@eth,c4_c1h2o1@me)|ph-O-butyl
dihedral_coeff    20     0.000000     0.000000     0.037991     0.000000    # cos3->(h1_c1@me,c4_c1h2o1@me,c4_c2h2@me,h1_c1@me)|ph-O-butyl
dihedral_coeff    12     0.000000     1.902000     0.000000     0.000000    # cos3->(o2_c1zn1@co2,c3_c1o2@co2,c3_c3@ph,c3_c2h1@ph)|Zn4O_benz
dihedral_coeff    22     0.000000     0.000000     0.343642     0.000000    # cos3->(h1_c1@me,c4_c1h2o1@me,c4_c2h2@me,c4_c2h2@me)|ph-O-butyl

improper_style inversion/harmonic

improper_coeff     2     3.563253     0.000000    # harm->(c3_c2h1@ph,c3_c2h1@ph,c3_c2o1@ph,h1_c1@ph)|ph-O-butyl
improper_coeff     4    40.574160     0.000000    # harm->(c3_c1o2@co2,c3_c3@ph,o2_c1zn1@co2,o2_c1zn1@co2)|Zn4O_benz
improper_coeff     3     0.000000     0.000000    # harm->(c3_c2o1@ph,c3_c2h1@ph,c3_c2h1@ph,o2_c2@eth)|ph-O-butyl
improper_coeff     1     0.000000     0.000000    # harm->(c3_c2h1@ph,c3_c1o2@co2,c3_c2h1@ph,c3_c2o1@ph)|xxx

special_bonds lj 0.00 0.00 1.00 coul 1.00 1.00 1.00
Finding 1-2 1-3 1-4 neighbors ...
  special bond factors lj:    0        0        1       
  special bond factors coul:  1        1        1       
     4 = max # of 1-2 neighbors
    12 = max # of 1-3 neighbors
    22 = max # of special neighbors
  special bonds CPU = 0.001 seconds




change_box all  triclinic
Changing box ...
  triclinic box = (0.0000000 0.0000000 0.0000000) to (51.703312 51.703314 51.703314) with tilt (0.0000000 0.0000000 0.0000000)
kspace_style pppm      1e-06
# ------------------------ MOF-FF FORCE FIELD END --------------------------


min_style		cg
minimize		0.0 1.0e-8 1000 10000
WARNING: Using 'neigh_modify every 1 delay 0 check yes' setting during minimization (../min.cpp:188)
PPPM initialization ...
  using 12-bit tables for long-range coulomb (../kspace.cpp:340)
  G vector (1/distance) = 0.26888087
  grid = 48 48 48
  stencil order = 5
  estimated absolute RMS force accuracy = 0.00031856066
  estimated relative force accuracy = 9.5933598e-07
  using double precision FFTW3
  3d grid and FFT values/proc = 8246 2016
Neighbor list info ...
  update every 1 steps, delay 0 steps, check yes
  max neighbors/atom: 2000, page size: 100000
  master list distance cutoff = 14
  ghost atom cutoff = 14
  binsize = 7, bins = 8 8 8
  1 neighbor lists, perpetual/occasional/extra = 1 0 0
  (1) pair buck6d/coul/gauss/long, perpetual
      attributes: half, newton on
      pair build: half/bin/newton/tri
      stencil: half/bin/3d/tri
      bin: standard
WARNING: Inconsistent image flags (../domain.cpp:814)
Per MPI rank memory allocation (min/avg/max) = 23.58 | 23.65 | 23.85 Mbytes
Step Temp E_pair E_mol TotEng Press 
       0            0   -119433.73    32118.633   -87315.097   -24973.003 
    1000            0   -119788.01    14753.381   -105034.63   0.55676402 
Loop time of 26.0617 on 56 procs for 1000 steps with 8384 atoms

97.7% CPU use with 56 MPI tasks x no OpenMP threads

Minimization stats:
  Stopping criterion = max iterations
  Energy initial, next-to-last, final = 
     -87315.0966070014  -105034.582240311  -105034.629686677
  Force two-norm initial, final = 6925.3771 8.9696311
  Force max component initial, final = 248.01747 0.35278347
  Final line search alpha, max atom move = 0.021600934 0.0076204526
  Iterations, force evaluations = 1000 1997

MPI task timing breakdown:
Section |  min time  |  avg time  |  max time  |%varavg| %total
---------------------------------------------------------------
Pair    | 16.077     | 19.268     | 22.004     |  33.6 | 73.93
Bond    | 0.58823    | 0.8183     | 1.0199     |  16.3 |  3.14
Kspace  | 2.6352     | 5.5798     | 9.0126     |  68.3 | 21.41
Neigh   | 0.028878   | 0.029227   | 0.029874   |   0.1 |  0.11
Comm    | 0.27742    | 0.30993    | 0.34222    |   3.8 |  1.19
Output  | 4.2915e-05 | 4.4052e-05 | 7.2002e-05 |   0.0 |  0.00
Modify  | 0          | 0          | 0          |   0.0 |  0.00
Other   |            | 0.05671    |            |       |  0.22

Nlocal:        149.714 ave         167 max         134 min
Histogram: 12 0 4 12 0 4 0 20 0 4
Nghost:        4891.07 ave        5011 max        4679 min
Histogram: 4 4 0 0 4 8 16 0 4 16
Neighs:        51231.3 ave       58133 max       45171 min
Histogram: 4 8 4 12 0 0 16 8 0 4

Total # of neighbors = 2868952
Ave neighs/atom = 342.19370
Ave special neighs/atom = 6.1984733
Neighbor list builds = 8
Dangerous builds = 0

velocity     	all create 301 3204550 dist gaussian mom yes rot no

#-----------------------------------------------------------------------------
variable        N      equal step
variable        T      equal temp
variable		R		equal 0.00198722
variable		sysvol		equal vol
variable		sysmass		equal mass(all)/6.0221367e+23
variable		sysdensity	equal v_sysmass/v_sysvol/1.0e-24
variable		coulomb		equal ecoul+elong
variable		etotal		equal etotal
variable		pe		equal pe
variable		ke		equal ke
variable		evdwl		equal evdwl
variable		epair		equal epair
variable		ebond		equal ebond
variable		eangle		equal eangle
variable		edihed		equal edihed
variable		eimp		equal eimp
variable		lx		equal lx
variable		ly		equal ly
variable		lz		equal lz
variable		Nthermo		equal 0
variable		cella		equal lx
variable		cellb		equal sqrt(ly*ly+xy*xy)
variable		cellc		equal sqrt(lz*lz+xz*xz+yz*yz)
variable		cellalpha	equal acos((xy*xz+ly*yz)/(v_cellb*v_cellc))
variable		cellbeta	equal acos(xz/v_cellc)
variable		cellgamma	equal acos(xy/v_cellb)
variable		p		equal press
variable		pxx		equal pxx
variable		pyy		equal pyy
variable		pzz		equal pzz
variable		pyz		equal pyz
variable		pxz		equal pxz
variable		pxy		equal pxy
variable		sxx		equal -pxx
variable		syy		equal -pyy
variable		szz		equal -pzz
variable		syz		equal -pyz
variable		sxz		equal -pxz
variable		sxy		equal -pxy
variable		enthalpy    equal enthalpy
variable		fmax		equal fmax
variable	        fnorm		equal fnorm
variable		time equal step*dt+0.000001
variable		surfacetension equal 0.5*v_lz*(0.5*(v_sxx+v_syy)-v_szz)


#-------------------------------------------------------------------------------
timestep	    1
thermo_style custom step evdwl ebond eangle edihed eimp pe ke etotal temp press vol v_coulomb enthalpy spcpu
thermo 1000

variable        TEMP        equal 301

fix             1 all npt temp  ${TEMP} ${TEMP} 100  tri  0 0 1000
fix             1 all npt temp  301 ${TEMP} 100  tri  0 0 1000
fix             1 all npt temp  301 301 100  tri  0 0 1000
run		100000
PPPM initialization ...
  using 12-bit tables for long-range coulomb (../kspace.cpp:340)
  G vector (1/distance) = 0.26888087
  grid = 48 48 48
  stencil order = 5
  estimated absolute RMS force accuracy = 0.00031856066
  estimated relative force accuracy = 9.5933598e-07
  using double precision FFTW3
  3d grid and FFT values/proc = 8246 2016
WARNING: Inconsistent image flags (../domain.cpp:814)
Per MPI rank memory allocation (min/avg/max) = 22.47 | 22.54 | 22.74 Mbytes
Step E_vdwl E_bond E_angle E_dihed E_impro PotEng KinEng TotEng Temp Press Volume v_coulomb Enthalpy S/CPU 
    1000   -529.78398    315.09446    11490.531    2943.5238    4.2316512   -105034.63    7521.4273   -97513.202          301    2488.1421    138214.98   -119258.23   -92497.795            0 
    2000   -166.03404    3326.5867    14634.502    4189.4631    135.76885   -97019.801    7849.5057   -89170.295    314.12937    33.556594    136888.54   -119140.09   -89103.303    71.154187 
    3000   -164.47281    3240.1366    14500.593    4079.1405    146.08189   -97336.125     7408.583   -89927.542    296.48408   -663.61711    136993.55    -119137.6    -91253.39     69.68743 
    4000   -67.851294    3354.6397    14506.373    4028.4363    155.19635   -97203.936    7567.3964   -89636.539    302.83964   -561.15339    137409.43   -119180.73   -90761.077    68.699069 
    5000   -120.20602    3252.6533    14521.055    4089.8579    148.29794    -97272.82    7547.9637   -89724.856    302.06196    386.59113    137208.63   -119164.48   -88951.269    65.742239 
    6000   -101.26926     3214.189    14553.119    4056.1536    140.36431   -97325.537    7461.8614   -89863.675    298.61623    278.23849     137286.2   -119188.09   -89306.592    66.078332 
    7000     -139.017    3209.6899    14546.064    4081.0091    137.85954   -97301.604    7713.2426   -89588.361    308.67625    406.66871     137622.7   -119137.21   -88772.142    68.538057 
    8000   -78.468361    3259.7781    14517.617    4016.2183     130.5553   -97331.592    7507.5968   -89823.996    300.44652   -55.329412    137684.47   -119177.29   -89935.096    68.867445 
    9000   -93.261949    3338.4571    14529.698    4031.7211    140.84724   -97245.441    7511.2236   -89734.217    300.59166   -156.38803    137435.79    -119192.9   -90047.675    65.541335 
   10000   -85.699527    3334.0266    14638.829    4029.4335    144.55879    -97184.11    7532.4574   -89651.653    301.44141   -152.22821    137418.53   -119245.26   -89956.734    66.074659 
   11000   -35.132756    3145.3058    14508.689    4039.1603    152.46664    -97322.58     7491.515   -89831.065    299.80294    271.78888    137812.17   -119133.07   -89284.811    65.900694 
   12000   -117.41663    3153.5724    14519.404     4004.237    128.05613   -97473.173    7483.5396   -89989.633    299.48377    366.82419    137647.57   -119161.03   -89253.253    65.380595 
   13000   -94.032154    3237.4851    14539.614    3953.3117    132.77819   -97414.878    7604.4467   -89810.432    304.32235   -262.95934    138544.16   -119184.04   -90341.748     67.09595 
   14000   -93.194427    3246.9876     14631.32     3994.919    146.16076    -97226.45    7474.8816   -89751.568    299.13729   -409.66978    137848.25   -119152.64   -90575.158    68.444031 
   15000   -89.790941    3219.4939    14631.898    3860.1765    137.81408   -97369.878    7359.4547   -90010.424    294.51802   -254.33602    138022.66   -119129.47   -90522.381    66.909965 
   16000   -56.995278    3185.7687    14516.493    3957.4889    137.66119   -97369.878     7541.455   -89828.423    301.80149    21.219718    138231.57   -119110.29   -89785.645    66.201311 
   17000   -70.935318    3187.7711    14627.644     3876.272    130.67057   -97392.338    7495.5436   -89896.794    299.96416    217.97066    138164.51   -119143.76   -89457.586    65.921773 
   18000      3.81092    3189.1967    14587.978    3770.7493    134.48981   -97400.921    7623.1981   -89777.723    305.07277   -270.79866    138020.85   -119087.15   -90322.811    69.020953 
   19000   -47.820046     3170.771    14591.492    3865.8299    130.37989   -97435.302    7489.0836   -89946.219    299.70564     641.1708    137252.92   -119145.96   -88662.792    66.636578 
   20000    -14.76759    3180.2244    14562.975    3826.6276    142.30678   -97417.086    7555.5371   -89861.549    302.36504    633.28844    137761.91   -119114.45   -88589.199    66.342904 
   21000   -84.079779    3183.6552     14637.65    3927.4066    131.68684   -97319.418    7529.8571   -89789.561    301.33735    425.72097    138043.78   -119115.74   -88932.488    66.263774 
   22000   -34.424673    3225.1343     14608.63    3856.0667    143.73237   -97353.073    7445.2525   -89907.821    297.95156    439.01169    137353.76   -119152.21   -89028.408    68.418832 
   23000   -75.005763    3179.4892    14649.154    3841.2044    134.86931   -97407.176    7500.5694   -89906.606    300.16529    8.1271092     137830.8   -119136.89    -89890.27    66.512248 
   24000   -34.864647    3266.8459    14684.753    3852.9926    143.28382   -97269.229    7512.1582    -89757.07    300.62906   -493.50827    138125.43   -119182.24   -90751.202    66.838052 
   25000   -26.875081    3209.5396    14549.707    3789.6157    122.47493   -97462.253    7631.1603   -89831.093     305.3914    198.28871     138082.8   -119106.72    -89431.78    68.988826 
   26000   -61.312967     3161.936    14594.112    3756.3051    124.31083   -97540.613     7542.153    -89998.46    301.82942   -150.17022    138351.99   -119115.96   -90301.461    69.071062 
   27000   -14.188347    3209.5345    14573.363    3737.5611    136.65924   -97435.542    7472.8994   -89962.642    299.05796    843.78472     137881.4   -119078.47    -88265.91    69.293385 
   28000   -54.369098    3381.0341    14570.274    3721.7523     150.0197   -97333.257    7596.0015   -89737.255    303.98438   -1026.4717    138332.53   -119101.97   -91808.098    67.101832 
   29000   -1.2194496    3254.7207     14586.03    3678.3953    149.91935   -97415.494    7568.0016   -89847.493    302.86386   -91.949963    137878.66   -119083.34   -90032.388    66.816697 
   30000   -20.296111    3195.3077    14576.862    3702.8013    134.18781   -97515.745    7495.5056   -90020.239    299.96264    -79.42602    138134.05   -119104.61   -90180.247    65.876916 
   31000    8.7044363    3220.2914    14589.381    3655.1088    138.53583   -97440.752    7572.5247   -89868.228    303.04487    12.559469    137914.53   -119052.77   -89842.966    65.539711 
   32000   -50.451892     3307.687    14645.461    3709.6826     133.5617   -97380.565    7387.5261   -89993.039    295.64141    553.72206    137734.23   -119126.51    -88880.77    65.499981 
   33000   -15.594448    3179.9649    14647.251    3715.3626    136.58604   -97459.859    7649.7806   -89810.078    306.13657    731.54248    137088.52   -119123.43   -88347.508    65.872179 
   34000   -29.779035    3167.3258    14612.426     3700.058    148.74477   -97505.142    7450.0961   -90055.046    298.14539    240.08867    138111.59   -119103.92   -89571.456    67.115828 
   35000   -38.693832    3245.5857    14699.596    3691.6253    144.41551   -97345.797    7508.1624   -89837.635    300.46915   -203.20634     137330.1   -119088.33    -90244.62    67.956462 
   36000   -35.352099    3297.7557    14656.112    3716.9539    144.72226   -97331.247    7461.4866   -89869.761    298.60123    14.443762    138006.18   -119111.44    -89840.69    67.731015 
   37000    -45.69309    3153.4605    14603.662    3768.4667    134.27616   -97509.917    7568.6704   -89941.247    302.89062    436.45837    138028.42   -119124.09   -89062.655    67.543174 
   38000   -40.738946    3128.6216    14504.773    3772.9923    131.39102   -97574.525    7480.1798   -90094.345    299.34932    720.76984    137797.39   -119071.56   -88645.862    67.781624 
   39000   -41.597206    3258.9154    14547.398    3704.1503    142.77199   -97471.984    7474.1282   -89997.856    299.10714    -251.1947    138318.96   -119083.62   -90504.576    65.941235 
   40000   -34.788533    3240.3298    14634.442    3731.3362    137.71743   -97385.512    7572.3726    -89813.14    303.03878   -348.61531    138005.73   -119094.55   -90514.788    65.538668 
   41000   -52.514664    3230.6979    14543.005    3701.9006    138.41768   -97512.632    7545.8534   -89966.779    301.97751   -288.70598    138115.16   -119074.14    -90548.31    68.146161 
   42000   -48.574875    3229.1325    14660.427    3702.9763    143.99102   -97409.915    7508.6996   -89901.215    300.49065    523.44239    137879.38   -119097.87   -88848.662    67.329933 
   43000   -107.95798    3290.1592    14705.707    3674.7123     149.1906   -97362.545    7430.3773   -89932.168    297.35627   -644.20679    138193.54   -119074.36   -91230.509     69.44075 
   44000   -87.172846    3200.2009    14585.272    3725.7115    141.43637    -97564.12    7602.8705   -89961.249    304.25927    392.25054     137144.3   -119129.57   -89176.705    67.070008 
   45000   -45.567937    3164.2132    14584.577    3743.7869    148.33912   -97506.425    7516.5702   -89989.855    300.80562    44.923133    137499.55   -119101.77   -89899.771     67.85637 
   46000   -43.350521    3214.3988    14681.396    3637.1327    135.27734   -97469.103    7572.9938   -89896.109    303.06364   -42.162193    138201.97   -119093.96   -89981.088    68.810172 
   47000   -66.576554    3179.8988    14656.653    3721.5914    131.98035   -97462.925    7597.2397   -89865.685    304.03393   -318.73116    137729.78   -119086.47   -90505.903    68.660376 
   48000    -85.33767    3254.8835    14540.919    3650.0229     145.3583   -97594.486    7520.1975   -90074.288    300.95078   -496.84412     138151.2   -119100.33   -91075.327    67.646655 
   49000   -65.319045    3226.1168    14677.415    3743.9348    139.20773   -97403.885    7447.0048   -89956.881    298.02169    112.48885    137672.99   -119125.24   -89731.023    68.056215 
   50000   -40.328254    3190.3818     14603.02    3670.1662    143.66526   -97533.185    7416.2236   -90116.962    296.78985   -539.51832    138090.07   -119100.09   -91203.499    68.317038 
   51000   -37.242321    3202.8975    14604.312    3668.6609    140.08826   -97494.616    7493.9899   -90000.626    299.90198    629.16332    138233.53   -119073.33   -88732.237    67.828796 
   52000   -3.4868773    3294.0532    14663.044    3648.8219    158.31277   -97341.554    7520.3219   -89821.232    300.95576   -42.390661    137794.67    -119102.3    -89906.42    69.410092 
   53000   -63.894527    3275.3599    14564.904     3688.903     154.6487   -97452.526    7363.0695   -90089.456    294.66268    347.57591    137660.82   -119072.45   -89391.649    69.770183 
   54000   -26.368254    3167.3404    14569.041    3699.0784     136.3291   -97550.763    7636.4455   -89914.318    305.60291    678.51044    137619.26   -119096.18   -88552.523    64.438831 
   55000   -39.714246    3209.5158     14612.66    3648.7276    136.62746   -97536.592    7462.3392   -90074.253    298.63535   -233.28211    138181.22   -119104.41   -90544.371    66.328815 
   56000   -50.782485    3177.8604    14580.784    3614.2566    138.13081   -97607.258    7497.0127   -90110.245    300.02295     299.5021    137823.81   -119067.51    -89508.24    68.368972 
   57000   -53.268537    3232.1361    14602.799    3616.2414    158.18721   -97533.178    7571.5148   -89961.663    303.00445   -619.77329    137685.24   -119089.27   -91206.166    67.626118 
   58000    -100.1501    3299.1628    14634.312    3666.1764    140.84002   -97425.092    7634.3132   -89790.778    305.51758    -182.7116     138251.2   -119065.43   -90159.171    68.297531 
   59000   -83.900069    3225.3402     14611.29    3667.6308    134.45846   -97529.664    7503.8469   -90025.818    300.29645   -478.46428    138443.94   -119084.48   -90991.867    65.707097 
   60000   -102.51411    3247.9303    14620.986    3678.2465    146.16897   -97496.553    7462.0363   -90034.517    298.62323    168.89838    138030.29   -119087.37    -89694.52    66.401838 
   61000   -53.098522    3170.8409    14640.309    3599.7869    154.28135   -97582.899    7523.3522   -90059.547    301.07703    355.34128    137900.36   -119095.02   -89344.907     67.22098 
   62000   -7.2975852     3282.361    14533.078    3654.0741    144.67163   -97502.548    7501.8522   -90000.696    300.21662    62.352767    138077.29   -119109.44   -89875.136    67.958406 
   63000   -43.197208    3175.8976    14617.098    3555.1043    150.19448   -97619.304    7428.4746    -90190.83    297.28012   -74.386521    138005.57    -119074.4   -90340.545    66.294437 
   64000    -51.07855    3174.2387    14587.979    3579.2364     151.6634   -97623.001    7536.5767   -90086.424    301.60626   -390.44462    137985.15   -119065.04   -90872.144    66.731552 
   65000   -44.872361    3202.5128    14648.702    3619.8905    143.41739   -97512.702    7532.6256   -89980.077    301.44814   -211.38224    137615.03   -119082.35   -90404.316    67.013003 
   66000    -28.51495    3192.1512    14657.287    3639.3193    153.30338   -97441.537     7653.793   -89787.744    306.29714   -153.29352    138358.67   -119055.08   -90097.063    66.887695 
   67000   -52.698027    3160.5769    14625.825    3613.4005    140.48033   -97545.735    7481.2862   -90064.449    299.39359    186.24891     137996.5   -119033.32   -89689.616    66.678971 
   68000   -111.95233    3202.0114    14663.361    3693.2725    140.60527   -97493.294     7621.713   -89871.581    305.01333    410.80907    137828.71   -119080.59   -89045.818    68.472379 
   69000    -2.182506    3199.7315    14609.028     3617.834    140.09701   -97517.534    7530.0465   -89987.487    301.34493     439.1521    137883.19   -119082.04   -89104.403    65.429148 
   70000   -13.184793    3209.7304    14511.609    3637.5954    158.78053   -97563.299    7477.8521   -90085.447    299.25616    545.15882    137782.63   -119067.83   -88989.994    68.328237 
   71000   -43.254629    3227.7096    14517.996    3625.9766    144.62254   -97541.941    7468.5574   -90073.383     298.8842   -129.68457    138174.35   -119014.99   -90334.715    67.213819 
   72000   -51.867057    3244.0848    14589.297    3704.5965    138.45037   -97497.708    7632.9749   -89864.733    305.46402    702.39182    138137.99   -119122.27   -88449.694     66.58349 
   73000   -34.096606    3209.2409    14556.005    3620.0197    131.15226    -97574.08    7470.9479   -90103.132    298.97986   -67.419443    138098.32    -119056.4   -90238.916    67.854532 
   74000   -33.041851     3213.938    14681.183     3604.649    149.58335   -97470.471    7537.6875   -89932.783    301.65072    346.94312    137833.44   -119086.78   -89235.372    68.901392 
   75000    10.595276    3273.9512    14633.955    3595.7436    138.84956    -97483.22     7665.278   -89817.942    306.75676    140.04155    137751.64   -119136.32   -89536.604    68.197659 
   76000   -11.295026     3272.992    14588.612    3632.3599    138.24805   -97481.647    7563.9012   -89917.746    302.69976      264.919    138114.73   -119102.56    -89384.13    67.197852 
   77000   -34.217389    3133.2694     14594.56    3586.2503    149.61668   -97609.703    7525.4733    -90084.23    301.16192   -402.09457    137904.72   -119039.18   -90892.922    65.198467 
   78000   -41.995043     3228.493     14647.41    3663.7247    140.28119   -97444.656    7544.9288   -89899.727     301.9405    300.63641    138146.11   -119082.57   -89294.029    65.285363 
   79000   -39.596585    3294.4688    14624.644    3608.9606    141.95474   -97441.197    7531.8749   -89909.322     301.4181   -417.58476    138322.03   -119071.63    -90751.71    67.003247 
   80000   -24.381924    3254.7532    14615.689    3633.5011    129.18347    -97466.81    7487.5343   -89979.276    299.64363    361.41486    137766.95   -119075.56   -89253.125    66.156187 
   81000   -62.486772    3270.8591    14661.015    3610.5046    133.82162   -97459.686    7436.8888   -90022.797    297.61685   -213.80943    137803.35    -119073.4   -90452.494    68.335716 
   82000    24.021642    3313.2669    14633.281    3615.0612    156.79402   -97378.412    7548.9424    -89829.47    302.10113    105.34948    137720.03   -119120.84   -89617.875    69.648486 
   83000    49.950606    3212.1291    14657.106    3596.3277    135.68351   -97456.945    7528.5483   -89928.396    301.28497    628.31181    137937.09   -119108.14    -88664.44    67.203235 
   84000   -23.772263    3136.9959    14622.722    3564.6664    127.30549   -97650.243    7501.0089   -90149.234    300.18287    215.65508    138614.77   -119078.16   -89713.275     64.17187 
   85000   -7.1651202    3320.6262    14585.969    3581.8232    140.30208   -97478.396    7596.6768   -89881.719    304.01141   -341.70347     137947.5   -119099.95   -90569.166     64.17308 
   86000   -9.9655407    3297.2979    14545.325    3637.9507    126.25595   -97526.103      7510.29   -90015.813     300.5543    746.20081    138002.27   -119122.97   -88513.993    67.241699 
   87000    19.603956    3299.2414    14662.792    3577.1651    129.68397   -97408.743    7582.4315   -89826.312    303.44133     -141.725    138242.49   -119097.23   -90112.047    68.089196 
   88000   -7.6165961    3235.8209    14552.455    3570.3586    131.80582    -97591.78    7545.5216   -90046.258    301.96423    912.91615    137889.75    -119074.6   -88210.402    67.552587 
   89000   -42.381567    3287.9136    14652.009    3631.3004    139.18057   -97390.049     7562.647   -89827.402    302.64957   -369.72365    138440.07   -119058.07   -90573.876    67.781859 
   90000   -33.641852    3268.1029    14615.737     3574.772    144.99057   -97572.985    7574.6215   -89998.364    303.12878    204.26718    138506.01   -119142.95   -89585.751    68.034436 
   91000   -51.853624    3180.2132    14558.915    3625.6344    132.31894   -97600.044     7447.969   -90152.074    298.06027   -74.142837    138497.59   -119045.27   -90301.832    68.336753 
   92000   -45.696404     3257.514    14616.993    3637.4413    127.93895   -97453.378    7429.1789   -90024.199    297.30831   -425.35265    137263.41   -119047.57   -90875.689    68.334306 
   93000   -26.789681    3285.7517    14540.648    3588.8915    139.67995   -97524.051    7482.4128   -90041.638    299.43868    -230.9065    138155.24   -119052.23   -90506.881    67.238756 
   94000   -70.255787    3274.3939    14650.109    3626.0752    139.88675    -97476.45    7459.4036   -90017.046    298.51787   -134.25038    138041.36   -119096.66   -90287.318    66.729825 
   95000   -73.504337    3191.6827    14495.399    3612.1139    138.15434   -97704.603    7419.3974   -90285.206    296.91686   -185.61013    138139.61   -119068.45   -90659.141    67.191034 
   96000   -27.016683    3194.6663     14641.79    3626.9641    137.53774   -97500.211      7604.15   -89896.061    304.31048    582.11923    138340.19   -119074.15   -88721.607    66.570229 
   97000   -45.659241    3190.3667    14593.018    3619.0147    127.68118   -97615.408    7466.1251   -90149.283    298.78686   -285.20931    138073.17   -119099.83   -90723.597    65.736379 
   98000    -83.20118    3226.9599    14658.328    3646.2126     148.6647    -97494.64    7526.7895    -89967.85    301.21459    251.53879    138327.39    -119091.6   -89460.405    64.327269 
   99000   -25.547061    3275.2812    14574.561    3571.4008    132.39399   -97497.544    7464.3149   -90033.229    298.71442   -379.85161    138080.81   -119025.63   -90798.161    67.664584 
  100000   -60.152208    3200.0912    14629.411    3597.2324    145.96179   -97563.998    7543.5203   -90020.477    301.88414   -827.15797       138510   -119076.54   -91691.358    65.495335 
  101000   -2.3838157    3195.4225    14703.099    3570.3817    147.85052   -97459.833    7632.4933    -89827.34    305.44475    -40.24226    138178.07    -119074.2   -89908.436    66.957212 
Loop time of 1488.06 on 56 procs for 100000 steps with 8384 atoms

Performance: 5.806 ns/day, 4.134 hours/ns, 67.201 timesteps/s
97.0% CPU use with 56 MPI tasks x no OpenMP threads

MPI task timing breakdown:
Section |  min time  |  avg time  |  max time  |%varavg| %total
---------------------------------------------------------------
Pair    | 769.54     | 927.7      | 1082.5     | 253.1 | 62.34
Bond    | 30.009     | 41.909     | 51.912     | 122.8 |  2.82
Kspace  | 215.57     | 380        | 550.33     | 433.5 | 25.54
Neigh   | 14.032     | 14.085     | 14.149     |   0.8 |  0.95
Comm    | 15.727     | 17.929     | 23.553     |  54.3 |  1.20
Output  | 0.0070481  | 0.0071499  | 0.0088947  |   0.3 |  0.00
Modify  | 87.085     | 102.01     | 106.54     |  55.1 |  6.86
Other   |            | 4.43       |            |       |  0.30

Nlocal:        149.714 ave         184 max         113 min
Histogram: 2 5 4 9 3 12 10 4 2 5
Nghost:        4840.50 ave        4952 max        4641 min
Histogram: 3 3 2 2 2 5 13 12 8 6
Neighs:        52004.6 ave       66008 max       39346 min
Histogram: 3 6 5 9 8 7 9 2 6 1

Total # of neighbors = 2912258
Ave neighs/atom = 347.35902
Ave special neighs/atom = 6.1984733
Neighbor list builds = 3563
Dangerous builds = 0
write_data      data_1_relax.*
System init for write_data ...
PPPM initialization ...
  using 12-bit tables for long-range coulomb (../kspace.cpp:340)
  G vector (1/distance) = 0.26903483
  grid = 48 48 48
  stencil order = 5
  estimated absolute RMS force accuracy = 0.0003148054
  estimated relative force accuracy = 9.4802713e-07
  using double precision FFTW3
  3d grid and FFT values/proc = 8246 2016
WARNING: Not all mixed pair coeffs generated from mixing. Use write_data with 'pair ij' option to store all pair coeffs. (../write_data.cpp:312)
unfix 1

fix             1 all npt temp  ${TEMP} ${TEMP} 100  tri  2000 2000 1000
fix             1 all npt temp  301 ${TEMP} 100  tri  2000 2000 1000
fix             1 all npt temp  301 301 100  tri  2000 2000 1000
run		500000
PPPM initialization ...
  using 12-bit tables for long-range coulomb (../kspace.cpp:340)
  G vector (1/distance) = 0.26903483
  grid = 48 48 48
  stencil order = 5
  estimated absolute RMS force accuracy = 0.0003148054
  estimated relative force accuracy = 9.4802713e-07
  using double precision FFTW3
  3d grid and FFT values/proc = 8246 2016
WARNING: Inconsistent image flags (../domain.cpp:814)
Per MPI rank memory allocation (min/avg/max) = 22.49 | 22.71 | 23.07 Mbytes
Step E_vdwl E_bond E_angle E_dihed E_impro PotEng KinEng TotEng Temp Press Volume v_coulomb Enthalpy S/CPU 
  101000   -2.3838157    3195.4225    14703.099    3570.3817    147.85052   -97459.837    7632.4933   -89827.344    305.44475   -40.236315    138178.07   -119074.21   -89908.428            0 
  102000   -27.989126     3133.802    14664.071    3781.2468    139.21225   -97351.162    7418.5604   -89932.602    296.88337    1847.7844    132920.11   -119041.51   -86350.665    63.851419 
  103000   -63.509553    3108.9743    14642.158    3843.3544    150.20541   -97371.655    7556.9499   -89814.705    302.42158     2138.869    131495.65   -119052.84   -85712.934    63.768958 
  104000   -103.83544    3124.2671    14714.699    3848.7215    136.93475    -97390.75    7508.5796   -89882.171    300.48585    1969.5687    129759.21   -119111.54   -86154.949    64.369056 
  105000    -199.8216    3097.5366    14703.011    4029.2715    145.30256     -97255.8    7708.5709   -89547.229     308.4893    1732.2805    127506.37    -119031.1   -86325.968    66.075813 
  106000   -292.64479    3203.4591    14722.362    4113.9467    139.19524    -97229.81    7529.9068   -89699.903    301.33934     1455.905    123048.69   -119116.13   -87087.225     63.02024 
  107000   -412.30192    3148.6151    14756.737     4202.558    156.68188   -97302.899    7664.2046   -89638.695    306.71381    949.30401    120644.15   -119155.19   -87968.422    59.223694 
  108000    -499.9817    3131.8717    14752.283    4342.3085    128.05737     -97319.3    7492.6246   -89826.675    299.84734    1862.1568    116808.77   -119173.84   -86654.424    58.364387 
  109000   -621.37239    3119.5911    14832.942    4490.8596    145.65285   -97130.019    7555.3312   -89574.688     302.3568    2061.7991    114103.64   -119097.69    -86143.68     57.53356 
  110000   -745.73768    3128.7157    14795.562    4537.1118    140.92995   -97313.334    7510.1181   -89803.216    300.54741    1549.1548    110719.99   -119169.92   -87301.738    57.076263 
  111000   -783.45132    3123.3548    14902.457    4609.0063    142.58758   -97189.474    7570.6875   -89618.787    302.97134    1649.6797    109069.91   -119183.43   -86994.686    57.995003 
  112000   -842.88346    3136.7484    14865.764    4615.5537    151.82733   -97308.702    7592.3868   -89716.315    303.83973    1937.4327    107768.33   -119235.71   -86671.271    57.131143 
  113000   -931.87811    3149.5833    14834.083     4709.265    143.79854     -97277.6    7658.7555   -89618.845    306.49574    1150.3564    106065.08   -119182.45   -87839.415    54.293595 
  114000   -836.71744     3156.398    14868.577    4614.9023    144.18272   -97292.728    7506.7936   -89785.935    300.41437    2214.7121    106235.73   -119240.07   -86354.595    55.932835 
  115000   -1002.0156    3058.0436    14842.368     4747.376    147.72516   -97457.236    7441.3891   -90015.847    297.79695    2991.6377    104505.19   -119250.73   -85456.289    55.440778 
  116000   -1003.2239    3131.6055    14897.955    4806.8072    162.16537   -97223.289    7512.2574   -89711.032    300.63303    1567.1799     104737.6    -119218.6   -87317.179    53.580294 
  117000   -1090.1378    3236.0698    14815.242    4798.3083    134.24601    -97343.72    7517.8865   -89825.833     300.8583    1259.4238     103656.8   -119237.45   -87921.927    56.747522 
  118000   -996.82997    3118.5096    14771.484     4760.905    150.26688   -97388.484    7594.1934   -89794.291    303.91202    1284.6027    103519.57   -119192.82   -87854.892     55.11606 
  119000   -1049.1753    3054.2213    14907.107    4802.2686    141.01392   -97400.901    7552.4797   -89848.421    302.24268    1717.6501    102722.84   -119256.34   -87275.197    55.846107 
  120000   -1005.2893    3193.1078    14957.979    4829.2755    142.31293   -97153.932    7610.6261   -89543.306    304.56965    2079.9925    102286.69   -119271.32   -86440.484    54.444848 
  121000   -1122.4145     3116.785     14908.14    4795.5652    146.19604   -97418.459     7530.854   -89887.605    301.37725    1670.6152    102832.73   -119262.73   -87382.166    55.870803 
  122000   -1177.7157      3133.43    14861.388    4861.2213    148.25959   -97445.438    7536.0196   -89909.419    301.58397    1427.0771    101443.18   -119272.02   -87798.137    54.449368 
  123000   -1139.6572    3109.7005    14859.194    4887.9243    145.60337   -97327.907    7590.3035   -89737.604    303.75635    1908.8531    102173.13   -119190.67    -86893.24    55.244709 
  124000   -1105.9435    3139.2524    14882.002    4702.0001    161.98231   -97415.815    7554.7134   -89861.102    302.33207    1642.6731    102041.46   -119195.11   -87416.525    54.225747 
  125000   -1093.0532    3128.1765    14988.572    4719.8854    127.64954   -97328.403    7412.2848   -89916.118    296.63222    2622.5258    101665.73   -119199.63   -86027.725     53.54416 
  126000   -1133.1118    3166.6254    14917.692    4763.3417    132.37528   -97380.877    7545.2155   -89835.661    301.95198    2009.8558    101592.47    -119227.8   -86857.815    55.269365 
  127000   -1183.2032    3195.1646     15029.62    4811.5977    160.05709   -97248.122    7527.3138   -89720.808    301.23557    1507.0773    101433.84   -119261.36   -87491.376    54.959453 
  128000   -1151.8834     3172.618    14880.077    4827.3182     144.0329   -97408.953    7501.5066   -89907.447    300.20279    2926.1827    101173.56   -119281.12   -85589.827    54.558538 
  129000   -1165.0375    3240.5578    14927.783    4747.2279    146.71482   -97363.729    7378.9082   -89984.821    295.29653    1520.3722    101310.53   -119260.98   -87738.456    53.997397 
  130000   -1267.5283     3154.777    15015.495    4852.4639      146.678   -97357.469    7442.1887    -89915.28    297.82895    2230.9802     99775.37   -119259.36   -86668.933     52.51001 
  131000   -1195.5437    3164.1745    14832.167     4881.595     135.9046   -97415.275    7505.7733   -89909.502    300.37354    1173.3272    100452.08   -119233.57   -88190.589     53.42581 
  132000   -1234.3478    3125.2978    14976.013    4803.4832    149.64456   -97440.597    7653.6531   -89786.944    306.29154    1804.8938    100157.21   -119260.69   -87150.553    52.794569 
  133000   -1232.6595    3130.8151    14919.388    4833.7116    132.37963   -97506.113     7548.922   -89957.191    302.10031    2423.6581    99861.003   -119289.75   -86427.447    53.458209 
  134000   -1140.9839    3135.9666    14937.964    4748.5227    142.48264   -97432.051    7563.3994   -89868.651    302.67968    2565.5861    100710.76      -119256   -86100.413    53.206888 
  135000   -1112.5314    3142.2614    14875.488    4792.2764    136.29225   -97464.208    7479.4311   -89984.776    299.31935    2755.8847    99711.288   -119297.99   -85977.205    53.712999 
  136000   -1134.7839    3254.2954    14945.413    4800.5908    152.76662   -97285.582    7493.0218    -89792.56    299.86324    1622.6642    100596.69   -119303.86   -87411.951    54.036038 
  137000   -1181.6039    3174.4593    14949.854    4828.4784    147.08565   -97374.597    7447.2302   -89927.367    298.03071    2086.6385     99877.15   -119292.87   -86887.957    53.926441 
  138000   -1131.4537    3202.4979    15011.653    4753.9561    140.00152   -97333.306    7453.2527   -89880.054    298.27172    2104.4584    99770.467   -119309.96   -86817.962    53.370596 
  139000   -1231.2914    3150.0976    14923.522    4755.2867    133.55445   -97544.538    7549.8614   -89994.677     302.1379    2181.9153    100279.23   -119275.71   -86803.692    53.267583 
  140000   -1236.8993    3229.8836     14928.55    4756.0334    156.16921   -97421.148    7481.9099   -89939.239    299.41855    2182.6126    99158.698   -119254.89   -86782.902    52.865461 
  141000   -1217.0676    3214.9754    14904.163    4740.1161    147.88239   -97455.158    7643.5786   -89811.579    305.88837    1018.1793    100001.75   -119245.23   -88326.643    52.864919 
  142000   -1261.3592    3201.8418     14881.46    4843.3891    141.41252   -97468.075    7618.3795   -89849.696    304.87993     1434.748    99103.376   -119274.82   -87776.024    54.254193 
  143000   -1169.5434    3163.5483    14862.088     4772.739    130.24642   -97540.989    7540.2764   -90000.712    301.75432    1444.8761    99443.754   -119300.07    -87905.23    53.507557 
  144000   -1251.2821    3173.4877    14887.235    4843.0404    149.49435     -97530.5    7577.8021   -89952.698    303.25606    2890.5145    98557.198   -119332.48   -85798.001    52.796858 
  145000   -1267.9573    3249.7819    15062.661    4761.2194    142.34011   -97390.176    7525.7943   -89864.381    301.17476    3104.0404    97997.582   -119338.22   -85428.105    53.777536 
  146000   -1295.5628    3118.5844    15040.989    4797.9501    154.50596   -97468.691    7558.2291   -89910.462    302.47277    1837.1392    98117.609   -119285.16   -87281.617     52.08304 
  147000   -1257.7444     3131.468    14942.142    4829.5705    162.03927   -97467.512    7478.5035   -89989.009    299.28223    3200.9516    97737.426   -119274.99   -85426.372    52.548072 
  148000   -1246.6729    3258.3038    14902.065    4812.2902    135.24176   -97443.429    7488.6558   -89954.773    299.68852    846.98642    98789.782   -119304.66   -88734.479    53.586154 
  149000   -1288.6894    3123.9227     14907.51    4783.7267    137.92423   -97649.385    7503.9935   -90145.391    300.30232    1707.2802    98350.539   -119313.78   -87696.568    53.399138 
  150000   -1285.0603    3205.9051    14916.555    4877.7531    151.25229   -97416.691    7393.8743   -90022.817    295.89546    1990.2287    98773.818    -119283.1   -87155.863    54.080838 
  151000   -1328.3782    3236.4088    14911.314    4872.4506    151.48701   -97483.003    7559.9516   -89923.051     302.5417    1085.2548    97979.779   -119326.29   -88372.293    54.258253 
  152000     -1317.45    3151.3366    14842.285    4801.8994    133.50986   -97690.173    7375.5592   -90314.613     295.1625    1330.9724    98460.191   -119301.75   -88403.416     53.37957 
  153000   -1269.9963     3160.616    14952.003    4880.6151    132.14728   -97468.351    7453.8303    -90014.52    298.29483    2452.8331    97520.474   -119323.74   -86526.013     53.74402 
  154000    -1258.306    3179.1253    14926.248    4815.3338    145.43711   -97509.517    7587.7766   -89921.741    303.65523    1842.5124    98638.277   -119317.36   -87271.216    52.902781 
  155000   -1267.6271    3135.8443    14897.306    4813.5727     152.6203   -97561.562    7524.6451   -90036.917    301.12877    1912.1566    98383.513   -119293.28   -87293.311    53.441053 
  156000   -1263.5746     3162.005    14943.839    4957.9612    137.63671   -97416.197    7525.4678   -89890.729    301.16169    1918.4508    98100.839   -119354.06   -87146.002     52.91481 
  157000   -1255.5388    3120.4109    14836.395    4860.8568    150.10308   -97592.237    7517.6183   -90074.618    300.84757    1908.3895    98379.865   -119304.46    -87336.52    52.782565 
  158000   -1302.8885    3186.6882    14885.966    4851.3943    156.13905   -97526.244    7588.9361   -89937.308    303.70163    2091.2637    97709.581   -119303.54    -86957.27    52.866817 
  159000   -1338.5613    3158.9475    14902.758    4849.4679    145.25908     -97630.2    7473.0645   -90157.136    299.06457    2637.8492    97878.086   -119348.07   -86391.734    53.354331 
  160000   -1304.3417    3152.1388    14921.876    4867.7758    138.55422   -97529.837    7486.2561    -90043.58    299.59248    2989.8175    97205.791   -119305.84   -85805.075    54.091445 
  161000   -1296.9375    3170.9624    14992.932    4803.2802    142.45092   -97436.363    7579.5483   -89856.815    303.32594    2449.7408     97271.75   -119249.05   -86381.591    53.773967 
  162000   -1308.5566    3161.3357     14951.99    4840.7003    148.75255   -97512.674    7517.5592   -89995.115     300.8452    2588.1845     97218.96    -119306.9   -86325.487    54.030421 
  163000    -1294.498    3164.8635    14885.511    4793.0202    126.89636   -97647.286    7492.6675   -90154.619    299.84906    3047.0665    97987.037   -119323.08   -85800.237    53.398442 
  164000   -1302.8767    3274.8372    14999.514    4795.0044    131.30609    -97404.82    7637.4244   -89767.395    305.64209    1654.1857    96960.907    -119302.6   -87428.252    53.508112 
  165000   -1289.5148    3186.9898    14915.455     4813.882    159.40923   -97514.357    7475.4805   -90038.877    299.16126     3126.013    97230.218   -119300.58   -85606.181    53.615747 
  166000   -1293.9871    3228.6598    14939.104    4870.4255    134.47618   -97424.813    7606.4413   -89818.372    304.40217    2432.4668    97356.876   -119303.49   -86364.633    53.984831 
  167000    -1326.298    3120.9944    14855.231    4857.7045    132.65448   -97623.058    7627.5527   -89995.505    305.24703    2108.6065     97911.14   -119263.34   -86984.555      54.1538 
  168000   -1354.8163    3116.9481    14901.272    4878.9225    135.58339   -97659.169    7510.1013   -90149.068    300.54674    2398.9132    96750.154   -119337.08   -86764.197    54.447696 
  169000   -1336.8033     3146.989    14935.115    4803.9981    142.13313   -97612.006    7569.7867    -90042.22    302.93529    3130.2417    96728.566   -119303.44   -85626.429     52.67881 
  170000   -1328.3763    3104.2551    14918.406    4845.4007     138.5686   -97609.743    7614.8326    -89994.91    304.73798    2869.3247    96387.722      -119288   -85961.454    53.672066 
  171000   -1357.9314    3157.5595     14983.51    4815.3918    152.69828   -97588.417    7552.6474    -90035.77     302.2494    1746.8829    96950.388   -119339.65   -87565.814    52.325757 
  172000   -1317.4764    3192.9802    14920.273     4845.823    134.10896   -97512.349    7435.6346   -90076.714    297.56666    3145.9496    96474.929   -119288.06   -85650.401    52.996616 
  173000   -1359.2092    3141.1989    14891.243    4815.5482    152.26646   -97639.441    7552.1963   -90087.244    302.23134    1343.3334     96668.79   -119280.49   -88193.392    53.303319 
  174000   -1368.6354    3166.0736    14925.429    4842.9705    146.19507   -97643.207    7465.7407   -90177.467    298.77148    1442.3594    96527.519   -119355.24   -88146.978     54.03657 
  175000   -1374.2993    3229.1572    14948.037    4845.0843    152.37331   -97551.937    7481.9912   -90069.945     299.4218    2069.6893    97076.947   -119352.29   -87139.746    53.879505 
  176000   -1331.0331    3105.0571    15019.893    4763.1768     136.5402   -97607.197    7412.1977       -90195    296.62874    2058.8834     96926.78   -119300.83   -87284.608    51.926256 
  177000   -1289.9306    3183.7579    15001.872    4738.9061    150.22989    -97521.24    7512.8421   -90008.398    300.65643    2503.4286    96669.486   -119306.08   -86479.001    53.335506 
  178000   -1337.1127    3167.3578    15004.426    4835.7402    149.64412   -97488.009    7387.4414   -90100.568    295.63802    1849.4059    96997.356   -119308.06   -87484.385     53.51388 
  179000   -1337.1899    3130.9219    14994.691    4800.2405    143.82239   -97586.012    7517.9783   -90068.033    300.86197    2314.9556    96608.413    -119318.5   -86806.412    54.109989 
  180000   -1340.1993    3132.6174    14872.071    4799.0798    153.24472   -97695.524    7537.6196   -90157.905      301.648    2229.2472    96292.167   -119312.34   -87027.323     52.88367 
  181000   -1313.4583    3191.4915    14962.435    4743.6192    150.30014    -97588.82    7547.3923   -90041.427    302.03909    1908.9775    96671.641   -119323.21   -87350.043    53.832338 
  182000   -1393.8603    3140.0758    15005.321    4827.8207    166.56281   -97557.488    7584.3143   -89973.174    303.51668    2161.9595    96130.086   -119303.41   -86942.196    53.905688 
  183000   -1333.8258    3233.1974    15002.313    4744.4363    150.34603   -97522.645    7683.0901   -89839.555    307.46958    1519.3065    96795.117   -119319.11   -87694.814     53.70753 
  184000   -1389.5204    3182.0506    14983.482    4797.0576    134.93046   -97613.251     7484.013   -90129.238    299.50272    2457.9417    96666.334   -119321.25   -86664.083     54.44453 
  185000   -1337.2485    3161.8866    15064.911    4751.1716    137.55368   -97513.757    7504.0267    -90009.73    300.30365    1967.4618    96842.912   -119292.03   -87230.977    54.208425 
  186000   -1416.7695    3133.1394    15018.228    4779.6158    157.01397   -97628.613    7476.4419   -90152.172    299.19973    740.46494     96388.43   -119299.84   -89111.281    53.450842 
  187000   -1380.7095    3247.5798    14939.204    4773.8416    143.64518   -97579.531    7560.0347   -90019.497    302.54503    967.81134    96025.692   -119303.09   -88664.138    54.258497 
  188000    -1350.525    3059.9597    14932.329    4762.1491    144.15449   -97690.304    7545.4229   -90144.881    301.96028    1262.2077    96535.277   -119238.37    -88367.86    54.231517 
  189000   -1370.6117    3243.2138    14938.652     4727.432    144.97736    -97620.91    7479.0698    -90141.84    299.30489    1231.1871    96949.342   -119304.57   -88401.057    53.283046 
  190000    -1354.717    3254.5888    14939.534    4799.2723    142.56702   -97515.914    7569.7291   -89946.184    302.93299    1341.7009    96872.893   -119297.16    -88050.64     54.40031 
  191000   -1401.3626    3158.0413    15007.803     4811.851    133.34735   -97572.272    7556.9228   -90015.349    302.42049    2802.4913    96109.779   -119281.95   -86087.202    54.310547 
  192000   -1388.9274    3156.2578    14924.268    4772.5509    130.57083   -97679.229    7496.7058   -90182.523    300.01067     2500.945    96115.263   -119273.95   -86676.842    53.481558 
  193000   -1379.3542    3255.6203    14896.486    4806.9885    139.34341   -97591.751    7566.4352   -90025.316    302.80117    2275.5248    96017.882   -119310.84   -86838.848    54.406132 
  194000   -1388.0848    3112.2055    15031.231    4729.4086    139.08371   -97652.137    7471.4091   -90180.728    298.99832    2058.3083    96180.269   -119275.98   -87293.558    54.043175 
  195000   -1336.0631    3232.8434    14887.891    4775.4169    154.70851   -97576.342    7525.8852   -90050.457     301.1784    2830.8446    96003.722   -119291.14   -86086.947     54.24889 
  196000   -1390.2238    3218.5367    15045.014    4813.8458    150.82735   -97467.435    7512.0395   -89955.396    300.62431    1934.6065    95958.847   -119305.44   -87247.989    54.114177 
  197000   -1357.0013    3208.0472     15019.68    4746.7213    138.44709   -97538.407    7585.7627   -89952.644    303.57464    913.89297    96517.031    -119294.3   -88666.246    53.464414 
  198000    -1369.437    3212.6974    14886.051    4831.0494    138.67596   -97527.331    7365.1072   -90162.224    294.74423    2408.5808    95984.935   -119226.37   -86790.592    54.139841 
  199000   -1415.7781     3167.259    14946.141     4813.915    125.58316   -97670.047    7513.2201   -90156.827    300.67156    2139.2122    95726.492   -119307.17   -87170.331    54.504633 
  200000   -1386.3318    3234.8508    14931.173    4783.7998    151.30809   -97612.709    7618.2043   -89994.505    304.87292    2013.4472    95852.693   -119327.51   -87179.881    54.173473 
  201000    -1369.831    3135.8602     14973.59    4778.1926    144.53442     -97637.6    7433.2636   -90204.337    297.47177    3027.1902    95653.742   -119299.95   -85981.371    53.809616 
  202000   -1395.8176    3167.6287    15014.691    4749.9753     136.1408   -97619.169    7496.8896   -90122.279    300.01802    2473.8594    96641.804   -119291.79   -86635.568    53.167646 
  203000   -1408.4591    3114.6729    14920.105    4731.7571    150.06179    -97758.33    7540.0458   -90218.284    301.74509    1231.2155    95797.264   -119266.47   -88498.147    53.872823 
  204000   -1369.7128    3127.6172    14950.529    4757.9737    130.51016   -97660.013    7607.2512   -90052.762    304.43459    1931.1227    96081.355   -119256.93    -87346.78    53.457012 
  205000   -1397.4353    3264.1905    14877.528    4769.0631    141.69014   -97634.285    7511.6586   -90122.627    300.60907    1009.0342    96738.022   -119289.32   -88699.056    53.998669 
  206000   -1395.7855    3193.9148    14926.668    4818.0764    146.37993   -97575.845    7611.9569   -89963.888     304.6229    2520.3619    95711.592    -119265.1   -86445.827    54.516386 
  207000   -1327.2034    3223.0197    14943.896    4758.2671    148.70334   -97499.479    7556.2904   -89943.189    302.39518    2775.3624    96436.459   -119246.16   -86039.845    54.102685 
  208000   -1405.6207    3223.5102    14902.076    4755.0113    140.66452   -97647.293    7522.0759   -90125.217    301.02595    2055.0639    95030.149   -119262.93   -87277.068    54.312198 
  209000    -1406.959    3186.3076    14905.803    4764.5701    135.65553   -97678.853    7459.0043   -90219.848    298.50189    1184.0368    95756.883   -119264.23   -88566.322    54.478509 
  210000   -1415.1861    3206.9004    14956.377    4705.2334    145.60918   -97642.386    7597.7637   -90044.623    304.05491    1206.5655    96068.686   -119241.32   -88354.148    54.089429 
  211000   -1297.7504       3188.8    14880.148    4707.5839    153.15013   -97620.314    7605.5958   -90014.718    304.36834    2827.7532    96099.088   -119252.25   -86051.603    54.099097 
  212000   -1376.6113    3173.3172    14864.516    4750.3704    152.64593   -97695.384    7553.7041    -90141.68    302.29168    2536.2811     95823.48   -119259.62    -86597.26    53.720197 
  213000   -1406.9537    3185.0003    14868.776    4748.5213    142.34143   -97738.083    7562.4579   -90175.625      302.642    1900.4312    95806.882   -119275.77   -87520.257    54.631727 
  214000   -1362.8659    3177.6684    14910.076    4739.5534    144.30619   -97663.142    7538.2247   -90124.918    301.67221    2071.0241    96151.402   -119271.88   -87220.784    54.149477 
  215000   -1390.7484    3182.9112    14915.262    4689.8344    142.67816   -97753.247    7425.5907   -90327.657    297.16472    2522.1303    95808.155   -119293.18   -86803.575    52.852184 
  216000   -1407.5164    3207.5339    14926.527     4836.658    147.97986   -97591.217    7509.3803   -90081.837    300.51789    1936.2453    95958.805    -119302.4   -87372.137    53.491202 
  217000   -1385.2194    3215.5217    14932.089     4763.096    134.41357   -97650.522    7458.3174   -90192.204     298.4744     1365.944    95927.322   -119310.42   -88281.247    52.012872 
  218000   -1386.3443    3182.1869    14999.366    4767.6985    141.43014   -97588.563    7506.5943   -90081.968     300.4064    2777.7722    95757.869    -119292.9   -86202.725    52.881799 
  219000   -1402.9868    3133.2906    14931.664    4841.7227    139.36863   -97627.936    7502.8249   -90125.111    300.25555    2519.4393    95450.714      -119271   -86617.923    53.299097 
  220000   -1406.2193    3206.8479    15005.179    4796.3583    136.71647    -97492.31    7505.4782   -89986.831    300.36173    2865.9067    95815.474   -119231.19   -85982.098    52.820973 
  221000   -1460.5491    3206.9167     14998.09    4764.6439    152.96391   -97653.089    7564.4005   -90088.688    302.71975    1992.3338    95978.263   -119315.15    -87299.93    53.352384 
  222000   -1400.1766    3120.9192    14973.647    4804.0323    149.55979   -97651.545    7545.2415   -90106.304    301.95302    2092.6316    95979.706   -119299.53    -87177.11    52.759562 
  223000   -1354.6249    3184.5183     14939.74    4784.3179    134.08179   -97585.163    7564.7839   -90020.379    302.73509    1527.7539    96316.068    -119273.2   -87874.387    53.214368 
  224000    -1375.729    3168.9335    15013.308    4729.0419    143.45962   -97627.427    7501.9301   -90125.497    300.21974    2705.3618    95949.715   -119306.44   -86339.808    52.690632 
  225000   -1366.4333    3201.3744    14940.828    4735.3755    148.93683     -97679.7     7500.559   -90179.141    300.16487    1867.1483    95844.183   -119339.78   -87569.262    52.301247 
  226000   -1344.2117    3155.3042    14905.745    4749.7657    144.33772   -97683.112    7652.7858   -90030.327    306.25683    2862.2417    95597.772   -119294.05   -86039.802    53.735599 
  227000   -1391.5072     3208.009    15012.479    4741.3677    132.34699   -97627.909    7453.7418   -90174.167    298.29129    2922.2288    95538.933    -119330.6   -86102.516    53.609113 
  228000   -1374.3002    3209.8582    14951.577    4738.0886     144.1399   -97635.195    7556.8081   -90078.387    302.41591    1859.1184    95697.131   -119304.56   -87483.719    52.164522 
  229000   -1411.2221    3192.4144     14949.24    4786.3452    133.81378   -97659.123    7436.8099   -90222.313    297.61369    1876.8992    95653.235   -119309.71    -87604.03    53.488991 
  230000   -1392.4691    3234.0763    14972.468    4751.8916    142.64083   -97616.028    7492.0447   -90123.983    299.82414    1538.1246    95720.879   -119324.64   -87976.775    53.223254 
  231000   -1387.4322    3171.6689    14961.572    4849.5851      139.261    -97547.79     7627.467   -89920.323     305.2436    2755.7414    95632.249   -119282.44   -86076.895    51.934803 
  232000    -1415.114    3141.8745    14965.842    4811.7609    141.16876   -97677.716    7511.4337   -90166.282    300.60006    1521.8989    95690.991   -119323.25   -88042.389    52.190571 
  233000   -1421.2542    3284.7386    14945.509     4833.604    133.55344   -97511.126    7545.0904   -89966.035    301.94697    1826.7687    95348.355   -119287.28   -87425.808    53.998497 
  234000   -1414.7291    3147.5732    14944.459     4825.582    144.58514   -97684.776    7456.7682   -90228.008     298.4124    1537.9856    95540.878   -119332.25   -88085.032    53.296381 
  235000   -1438.8031    3259.7248    14955.411    4788.0546    143.09903   -97573.124    7481.1046   -90092.019    299.38632    2642.7287    95152.373   -119280.61   -86424.705    52.976804 
  236000   -1428.8827    3183.0553    14953.092    4765.5371    132.64253   -97670.126    7540.0955   -90130.031    301.74708     2323.288    95833.149   -119275.57   -86882.938     53.13581 
  237000   -1384.3192    3197.9662    14938.693    4736.9224     151.5679   -97669.363    7436.4328    -90232.93     297.5986    2124.3924    95256.696   -119310.19   -87281.679    52.715132 
  238000   -1416.4604    3123.4235     14968.02    4802.0607    148.59061    -97646.69    7526.5443   -90120.146    301.20478    3460.6478     95428.63   -119272.33   -85303.863    53.463782 
  239000    -1376.833    3177.1489    14984.606    4697.6126    159.75376   -97671.027    7476.4673    -90194.56    299.20075    2532.5654     95199.12   -119313.31   -86678.393    54.281237 
  240000   -1428.7968    3173.3342    14971.069    4768.3263    137.79291   -97673.083     7461.745   -90211.338    298.61157    2359.6219    95462.738   -119294.81   -86926.211    51.618589 
  241000   -1421.8596    3176.2431     14951.09    4760.5537    133.00969   -97696.678     7529.772   -90166.906    301.33395    2228.4442     95559.47   -119295.71   -87061.264    52.422765 
  242000   -1430.8046    3172.8532    14979.363    4793.6813    145.80275   -97645.987    7513.6217   -90132.365    300.68763    2350.6196    95453.702   -119306.88   -86860.081    52.983987 
  243000   -1435.9923    3210.2565    14939.034    4819.2396    144.30914   -97590.603    7634.2902   -89956.312    305.51666     1800.963    95127.787   -119267.45   -87457.762    52.258025 
  244000   -1454.7889    3252.7295    14924.978    4805.3897    137.45955   -97632.716    7486.4731   -90146.243    299.60117    982.73516    95694.517   -119298.48   -88774.732    52.667085 
  245000   -1424.1715    3184.6095    14979.515    4770.4831    132.01486     -97640.8    7465.3206   -90175.479    298.75466    1403.1008    95486.776   -119283.25   -88221.554    52.598204 
  246000   -1387.4743    3229.2964    14969.478    4734.6951     157.2977   -97569.312    7531.1686   -90038.143    301.38984    2908.7038    95421.987    -119272.6   -85990.299     52.44271 
  247000   -1449.5206    3152.4454     14998.59     4802.937    153.50254   -97635.159    7373.6866   -90261.472    295.08757    1822.3167    95104.407   -119293.11   -87733.919    51.413258 
  248000    -1437.137    3205.3382    14876.764    4757.9008    143.08832   -97741.715    7543.6845    -90198.03    301.89071    1262.8108    95784.288   -119287.67    -88433.99    52.480198 
  249000   -1440.2654    3199.1385    14916.657    4791.7632    157.24026   -97701.096    7439.8702   -90261.225    297.73617    1301.5454    95276.427   -119325.63   -88452.716    52.655962 
  250000   -1470.8849    3180.0692     14990.33    4827.5049    150.23508   -97610.358     7508.732   -90101.626    300.49195    1372.4011    94769.618   -119287.61   -88204.806    52.334813 
  251000   -1404.1499    3286.1379      14938.3    4775.5401    151.80103    -97536.97    7541.2779   -89995.692     301.7944      1520.58    95537.457    -119284.6   -87877.044    52.410267 
  252000   -1463.8333    3106.5891    14939.566    4771.5302    129.62114    -97769.66     7549.933   -90219.727    302.14077     2749.234    94841.873   -119253.13   -86417.065     53.41938 
  253000   -1445.4985    3197.7426    15001.276    4813.5812    157.31876   -97553.136     7556.567   -89996.569    302.40625    3008.5463    94808.889   -119277.56   -85836.681    52.723106 
  254000   -1458.0653    3186.4212    14933.645    4854.9764    164.58175   -97606.326    7500.8174   -90105.509    300.17521    1445.8175    94732.438   -119287.89   -88108.003    52.144533 
  255000   -1365.8009      3200.81    14873.991    4693.5083    148.12612   -97717.505    7476.1292   -90241.376    299.18721    1915.0861    95951.501   -119268.14   -87561.492    54.343047 
  256000   -1468.7318    3168.1022    14885.874     4742.696    141.91853   -97771.992    7550.0896   -90221.903    302.14704    1298.0016    95426.154   -119241.85   -88415.483    52.260428 
  257000   -1430.0677    3216.8384     14952.53    4818.4081    132.46457   -97649.792    7596.1915   -90053.601    303.99199    1761.9891     95085.21   -119339.97   -87610.215    52.060313 
  258000   -1442.2943    3252.4535    14939.593    4784.6679    133.61539   -97629.558     7579.748    -90049.81    303.33393    1225.7928    95379.747   -119297.59   -88344.712    52.980949 
  259000    -1461.125    3186.0659    14967.927    4753.4102    134.42736   -97723.371    7573.2268   -90150.144    303.07296    1623.5767    95435.916   -119304.08   -87890.393    53.591967 
  260000    -1479.617    3154.7854    14945.303     4782.646    145.70355   -97731.651    7436.5576   -90295.094     297.6036    2025.5326    95312.716   -119280.47   -87479.526    52.728647 
  261000   -1476.1264    3134.4253    14982.602    4846.3626    151.92401   -97670.411    7485.1343   -90185.277    299.54759    2807.1822    94934.357    -119309.6   -86298.676    53.956143 
  262000   -1433.1482    3147.8202    15007.123    4758.5542    156.95059   -97668.497    7592.0836   -90076.414    303.82759    2353.8349    94978.375    -119305.8   -86815.971    53.520257 
  263000   -1477.5083    3240.3144    14855.987    4833.3597    151.93567   -97687.696    7542.9975   -90144.699    301.86322    933.63625     95366.11   -119291.78   -88846.182    53.473843 
  264000   -1375.7792    3208.4948    14911.683    4766.0789    145.34288    -97686.42    7681.7798    -90004.64    307.41715    1468.5325    95721.939   -119342.24    -87954.56    52.574795 
  265000      -1424.4    3176.4556    14882.064    4821.9762    131.12087   -97676.982    7539.1045   -90137.877    301.70742     3165.557    95457.078    -119264.2   -85730.967     52.17643 
  266000   -1416.8471    3122.7862    14910.721    4845.3867     135.5893   -97725.657    7468.3651   -90257.292     298.8765    1678.1824     95208.23   -119323.29   -87927.111    52.891161 
  267000   -1394.8545    3168.3245    14931.326    4741.4447    132.66393   -97704.428    7453.8649   -90250.564    298.29622     2539.188    95162.529   -119283.33   -86726.557    52.876835 
  268000    -1476.391    3167.2397    14955.697    4786.4985    148.81128   -97691.044    7653.0575   -90037.987    306.26771    1798.1983    95264.764    -119272.9    -87539.68     53.62068 
  269000   -1427.6624    3136.0786    14900.065    4826.6943    133.10121   -97728.843    7508.4111   -90220.432     300.4791    2056.9653    95233.449   -119297.12    -87363.55    53.708231 
  270000   -1472.6469    3230.9159    14939.334     4806.802     157.2205   -97614.275     7578.592   -90035.683    303.28767    1299.5433    95115.949    -119275.9   -88232.997    53.454037 
  271000   -1464.5814    3235.9998    14993.675    4833.7896    156.69187   -97540.985    7471.9597   -90069.026    299.02036    2666.9998    94517.298   -119296.56   -86392.732    53.921032 
  272000   -1427.4229    3101.4735    14854.675    4852.1251    158.27706   -97760.733    7443.4868   -90317.246     297.8809    2003.5731     94999.55   -119299.86   -87541.353    53.077804 
  273000   -1450.2834    3168.8264    14950.921    4775.0889    144.25701   -97719.932    7483.6931   -90236.239    299.48991    1972.9194    95336.207   -119308.74    -87493.13      54.1329 
  274000    -1411.309    3161.7773    14873.573    4796.5014    157.79801   -97699.156    7648.4684   -90050.687    306.08406    3966.4142    94919.216    -119277.5   -84559.983     53.08353 
  275000   -1480.5525    3139.5086    14813.478     4766.399    150.47787   -97861.456    7629.7375   -90231.718    305.33447    1897.1463      95563.5   -119250.77   -87587.674    54.375599 
  276000   -1409.2266    3082.6453    14948.388    4810.4314    145.14116   -97730.768    7552.4113   -90178.357    302.23995    1868.5371    95072.665   -119308.15   -87587.561    53.700023 
  277000   -1456.2228    3179.7544    14869.803     4814.581    158.93978   -97744.655    7595.4226   -90149.232    303.96122    2630.4754    95171.868   -119311.51   -86498.175     53.66553 
  278000   -1447.5727    3161.3558    14890.498    4834.3166    154.26646   -97715.625    7590.9631   -90124.662    303.78275    1382.2088    95507.714   -119308.49   -88199.409    53.523598 
  279000   -1413.9566    3157.7845    14947.207    4763.7038    156.43803   -97686.285    7556.6131   -90129.672     302.4081    2195.6972    95693.463   -119297.46   -87065.377    53.903346 
  280000   -1498.3977    3160.5495    14916.056    4786.4451    146.23826   -97764.066     7606.117   -90157.949     304.3892    1345.4239    95694.941   -119274.96   -88280.259    52.851321 
  281000   -1334.4593     3280.071    14920.164    4699.8163    154.90179   -97593.877    7567.3805   -90026.497      302.839     2672.009    95411.695   -119314.37   -86308.445    52.619097 
  282000   -1343.8472    3194.2125     14931.95    4725.5068    146.25271   -97623.567    7504.4005   -90119.166     300.3186    2730.6181    95978.813   -119277.64   -86296.977    53.730267 
  283000   -1382.6623    3239.7188    14842.724    4783.1966    131.67638    -97709.73    7448.5852   -90261.145    298.08493    2011.2183    95561.209   -119324.38   -87458.186    53.500446 
  284000   -1422.4445    3123.8918    14886.855    4828.6934    157.80904     -97750.9    7412.7951   -90338.105    296.65265    2986.6078      95220.8   -119325.71   -86190.609    52.862508 
  285000   -1459.7492    3238.6719    14929.739    4766.4934    146.26743   -97663.812     7371.617   -90292.195    295.00474    1718.7838    95317.262   -119285.23   -87902.906    52.926564 
  286000   -1460.8886    3179.7621    14927.844    4817.4211    142.29541   -97684.257    7523.1111   -90161.146    301.06738     1816.286    95147.454   -119290.69   -87640.817    52.547906 
  287000    -1444.842    3226.8685    14924.588    4742.8209    143.60926   -97736.456     7398.603   -90337.853    296.08469    1922.1418    95842.618    -119329.5   -87651.148    53.641747 
  288000   -1487.2772    3181.3174    15049.769     4810.733    149.52158   -97623.849     7471.292   -90152.557    298.99363    2100.2034    94837.817   -119327.91    -87247.74    54.104742 
  289000   -1373.2484    3179.9324    14902.191    4800.6804    150.15996   -97709.037    7470.9549   -90238.082    298.98014    2397.2942     95059.43   -119368.75   -86914.607    53.543702 
  290000   -1501.1039    3158.9524    14966.109    4845.0464     143.1548   -97668.827     7322.077    -90346.75     293.0222   -56.930634     95425.05   -119280.99   -90425.979    53.556176 
  291000   -1409.4105    3173.8418    14980.633    4751.0997    157.08571   -97666.067    7481.0877    -90184.98    299.38565    4119.6294    95535.972   -119319.32   -84445.124    53.281958 
  292000   -1423.4481    3189.5345    14914.768    4794.6253      135.048   -97706.668    7535.9127   -90170.755    301.57969    2844.0984    94966.188    -119317.2   -86231.723     53.70828 
  293000   -1458.6331    3134.9402    14903.023    4818.2737    145.83064   -97729.965    7605.6519   -90124.313    304.37058    2508.4293    95141.075    -119273.4    -86643.78    53.934899 
  294000   -1426.5003    3208.7283    14862.341    4719.2515    148.07097   -97800.927    7560.9975    -90239.93    302.58356     1901.887     95267.24   -119312.82   -87597.495    53.822318 
  295000   -1427.9965     3136.429     14896.08    4793.7132    152.41557   -97729.612    7540.6186   -90188.994    301.76802    1554.0487    95288.158   -119280.25   -88029.363    53.478847 
  296000   -1472.6884    3153.1798    14939.335     4797.794     140.1611   -97705.519    7598.9456   -90106.573     304.1022    1493.4543    95423.111    -119263.3    -88028.21     54.55366 
  297000   -1389.9084    3162.0234    14898.624    4771.9709    153.72712     -97722.7    7466.9589   -90255.742    298.82023    2361.4802    95037.809   -119319.14   -86982.662    53.099254 
  298000   -1414.7281    3240.4196    14902.871    4766.5903    145.96558   -97624.083    7640.2773   -89983.805    305.75626    1765.5688    94887.778    -119265.2   -87540.539    53.394063 
  299000   -1441.9969    3134.4995    14867.569    4790.9712    159.78401   -97723.955    7605.2015   -90118.753    304.35256    2565.8345    95471.638   -119234.78   -86546.199    53.945685 
  300000   -1521.7501     3210.041    14969.219    4795.4106     146.8602   -97703.032    7473.3921    -90229.64    299.07768    1585.0684    94699.817   -119302.81   -88040.503    53.065524 
  301000   -1450.6893    3297.7124    14941.257    4793.8092    145.48899   -97633.467     7512.882   -90120.585    300.65802    2029.8644    95131.514   -119361.04    -87304.36    53.461118 
  302000   -1458.2594    3154.8204    14925.049    4757.9377    152.92872   -97763.821    7543.7719   -90220.049    301.89421    1860.9967    95077.706    -119296.3   -87639.571    53.131922 
  303000   -1461.6568    3196.0371    14932.701    4762.3196    145.47484   -97731.996    7554.1939   -90177.802    302.31128      2496.23    95395.837   -119306.87   -86704.921    53.460764 
  304000   -1379.0437    3165.8965    14877.016    4751.8349    145.75794   -97709.015    7581.1205   -90127.895    303.38886    1667.8056    95091.823   -119270.48   -87814.954    53.007098 
  305000   -1406.6774    3140.6559    14980.985    4715.4768    146.71551   -97721.457    7523.4513   -90198.005      301.081    2425.0004    94812.992   -119298.61   -86844.836    53.020512 
  306000   -1459.3205    3129.0411    14981.289    4741.7742     163.7849   -97747.721    7529.0712    -90218.65     301.3059    2817.3759    94723.106   -119304.29   -86326.616    54.449935 
  307000   -1462.9254     3161.722    14957.883    4774.0299    151.53842    -97686.58    7594.3182   -90092.262    303.91702    1867.3044    94789.298   -119268.83   -87510.891    53.024929 
  308000   -1474.6202    3225.2879    14941.745    4766.1688    134.24586   -97732.972    7447.3262   -90285.646    298.03455    2909.3111     95038.35    -119325.8   -86253.233    53.433546 
  309000   -1459.7171    3167.1154    14951.883    4809.6814    144.52299   -97676.538    7543.3922   -90133.146    301.87901    2288.6423    94884.402   -119290.02   -86966.142     54.03461 
  310000   -1439.1615    3223.0164    15040.341    4820.2194    159.92946   -97524.958    7509.3988   -90015.559    300.51863    2474.4693    94393.886    -119329.3    -86609.11    54.041102 
  311000   -1486.2793    3133.0247    14978.428    4756.9281    146.77889   -97736.635    7486.7874   -90249.847    299.61375     1407.803    95263.717   -119265.51   -88293.953    54.735589 
  312000   -1525.0662    3163.9427    14939.225    4761.2268    145.29569   -97795.358    7481.5293   -90313.828    299.40332    1644.2679    95436.618   -119279.98   -88025.262    54.966863 
  313000   -1448.4048    3283.4902    15030.699    4747.4562    150.98992   -97549.122    7656.7757   -89892.347    306.41651    2110.9234    95098.271   -119313.35   -86964.684    54.495948 
  314000   -1455.4901    3235.1331    14935.351    4767.5943      140.344   -97622.009    7555.9414   -90066.068    302.38122    2291.2488    95152.258   -119244.94   -86886.506    54.039475 
  315000   -1505.5748    3097.1074    14971.111    4809.5104    149.16829   -97751.103    7533.0896   -90218.013    301.46671    1358.8949    94379.668   -119272.43   -88347.589    55.132885 
  316000   -1519.0539    3170.9991    14970.475    4837.1635    138.12096   -97701.127    7462.9696   -90238.158    298.66058    3109.7037    94165.768   -119298.83   -85967.567    54.734055 
  317000   -1493.7774    3279.8135    14930.408    4791.1011    137.03973    -97657.47    7521.0499    -90136.42     300.9849    2055.2637    95127.991   -119302.05   -87285.062     54.37913 
  318000   -1505.5298    3119.2202    14926.844    4728.8631    142.79931   -97869.997    7523.2742   -90346.723    301.07391    2854.4507    94684.612   -119282.19   -86405.075    54.369902 
  319000   -1397.0595    3291.4963    14932.284     4771.404    137.91121   -97543.349    7498.9472   -90044.402    300.10037    2457.3943    95631.744   -119279.39   -86617.097    54.484725 
  320000   -1472.9342    3192.1484    14932.997    4783.6823     171.4655   -97703.943    7499.5754   -90204.367    300.12551    1579.1031    94632.415    -119311.3   -88025.021    54.504907 
  321000    -1468.731    3284.7748    14945.086    4788.3674     157.9118   -97602.254    7562.9501   -90039.304     302.6617    1415.6327    94847.602   -119309.66   -88081.123    53.914125 
  322000   -1459.2234     3183.226    14985.128    4737.1103     136.6445   -97720.809    7624.7027   -90096.107    305.13298    2389.7041    95101.981   -119303.69   -86781.671    54.927062 
  323000   -1464.5291    3232.3168    14918.989    4712.3082    139.17274   -97775.881    7573.5129   -90202.368    303.08441    2474.8624     95090.64   -119314.14    -86770.23    54.013888 
  324000    -1471.589    3185.9251    14833.651    4772.5448    153.50443   -97838.784     7473.864    -90364.92    299.09656    2870.2804    94421.411   -119312.82    -86412.43    54.177406 
  325000   -1436.1971    3137.3783    15066.416    4763.8015    145.18536    -97650.44     7514.229   -90136.211    300.71193    2103.6999    94635.026   -119327.02    -87232.78    54.211958 
  326000   -1458.0291    3134.0194    14902.277    4750.6589    146.84183   -97823.344    7518.8043    -90304.54    300.89503    2020.2004    95012.063   -119299.11   -87505.242    55.120465 
  327000   -1452.1198    3208.9391    14914.908    4751.0916    132.11638   -97726.698    7594.2733   -90132.425    303.91522    1757.7836    94417.465   -119281.63   -87711.989    54.164688 
  328000   -1453.2595    3239.8383    14957.169    4747.9075    156.51326   -97621.421    7450.8826   -90170.538    298.17687    1941.2489    95014.501   -119269.59   -87480.571    53.878823 
  329000   -1413.6342    3185.2736    14824.249    4718.3971    140.07404   -97850.756    7518.6034   -90332.152    300.88699     2304.275    94788.735   -119305.11   -87146.731    54.060007 
  330000   -1457.5326    3257.8072    14898.525    4758.6846     149.5943   -97685.274    7565.9946    -90119.28    302.78354    2102.1701    94587.002   -119292.35   -87219.432    54.172486 
  331000    -1472.093     3244.931    14969.164    4718.9222    150.12489   -97691.376    7562.8418   -90128.534    302.65737    1675.3646    94781.977   -119302.42   -87812.681    53.037078 
  332000   -1477.1808    3197.3032    14918.362    4812.4308    132.49347   -97733.395    7562.6633   -90170.732    302.65022    1341.8003    94714.219    -119316.8    -88317.29       54.575 
  333000   -1471.2447    3252.1588    14952.094      4741.47    147.70936   -97683.279    7520.7062   -90162.573    300.97114     1804.234    95087.486   -119305.47   -87660.545    54.139484 
  334000   -1473.0862    3219.2339    14964.392    4798.7952     155.1579   -97638.755     7431.749   -90207.006    297.41116    1635.1687    94467.229   -119303.25   -87954.221    53.936321 
  335000   -1524.0091    3231.2741    14976.671    4763.7768    130.73568   -97733.489    7543.0969   -90190.392    301.86719    1065.0109    94419.516   -119311.94   -88723.859    53.699781 
  336000   -1441.9949    3152.8779    14829.129    4800.1928    145.34102   -97839.574    7597.0491   -90242.525    304.02631    2031.6657    94675.634   -119325.12   -87437.309    54.009816 
  337000   -1467.4048    3182.3821    14928.941    4824.3924    152.15963    -97692.38    7634.3369   -90058.043    305.51853    2442.0515    94742.385   -119312.85   -86683.811    53.700738 
  338000   -1517.5687    3132.4677    14943.357    4736.6762    142.81754   -97880.333    7516.5517   -90363.781    300.80488    1970.4784    95089.856   -119318.08   -87631.145    53.543575 
  339000   -1433.7035    3202.7321    14891.345    4793.0219    144.28667   -97715.152    7558.5839   -90156.568    302.48697    2744.9811    94734.349   -119312.83   -86364.093    53.540732 
  340000   -1480.7854    3075.7025    14944.259    4806.7651    148.47484   -97828.405    7520.1808   -90308.224    300.95012    2451.4766    94523.599   -119322.82    -86928.79    53.163395 
  341000   -1438.0914     3133.637    14977.769    4777.4486    149.31539   -97727.405    7487.1991   -90240.206    299.63022    2465.4058    94463.025   -119327.48   -86843.749    54.459688 
  342000   -1421.7753    3211.0758    14837.797    4778.8511    156.25825    -97684.05    7518.5164   -90165.533    300.88351    3864.5776      94482.6   -119246.26   -84840.409    54.135541 
  343000   -1410.2292    3240.1999    14996.906    4782.8416    152.53121   -97539.895    7588.7091   -89951.186    303.69255    1946.2644    94618.194   -119302.14   -87265.517    53.696845 
  344000   -1467.6187    3168.7545    14972.232    4830.9853    144.38313   -97671.937     7587.134   -90084.803    303.62951    2963.7263    94306.481   -119320.67   -86008.602    55.101799 
  345000   -1427.1346    3310.8325    14895.402      4752.97    146.25035   -97648.294    7503.0843   -90145.209    300.26593    709.57308    95369.933   -119326.61   -89158.284    53.566159 
  346000   -1445.2278    3221.8511    14942.136     4773.744    147.14487   -97666.777    7469.0041   -90197.773    298.90207    1824.8017    94670.281   -119306.43   -87678.325    53.152287 
  347000   -1443.0364    3202.6472    14915.678     4767.739    141.40136   -97703.465    7487.4536   -90216.011    299.64041    2014.1779    95428.131   -119287.89   -87412.837    53.867425 
  348000   -1542.1135    3174.6321    14918.569    4854.3814    142.26602   -97756.281    7554.0404   -90202.241    302.30514    2290.4071    94476.744   -119304.02   -87046.412    54.363523 
  349000   -1454.9169    3162.5692    14909.972    4793.0941    143.56346   -97707.975    7509.0245   -90198.951    300.50365    1772.2489    94935.942   -119262.26   -87745.195    54.247477 
  350000   -1430.2226    3130.2125    15027.865    4778.7514    140.84528   -97621.035    7536.1072   -90084.928    301.58748    2690.6605    95089.249   -119268.49   -86353.576    53.458744 
  351000   -1494.8108    3220.5559    14902.503    4803.8503    151.86737   -97706.923    7527.4632    -90179.46    301.24155     1800.553     95109.07   -119290.89    -87681.97    54.713799 
  352000   -1355.1348         3166    14803.537    4800.2152    140.68097   -97796.366    7540.8449   -90255.521    301.77707    2365.6921    95584.534   -119351.66   -86957.741    54.304259 
  353000   -1461.6805    3116.0431    14909.619    4841.0139    153.96318   -97690.126    7457.7986   -90232.328    298.45364    1004.7558    95204.306   -119249.08   -88837.267      53.8517 
  354000   -1538.9591    3169.1478    14980.945    4843.8265    133.25893   -97716.534    7548.6564   -90167.877    302.08968    2559.3273    94992.599   -119304.75   -86622.263    54.090294 
  355000    -1471.067    3181.1735    14847.538    4872.6657    143.35611   -97737.339    7444.7916   -90292.547    297.93311    1350.6751    94653.116   -119311.01    -88428.05    54.129441 
  356000   -1461.7875    3189.7318    14948.579     4796.968    137.67514   -97674.965    7522.9558   -90152.009    301.06117    1649.7726    95382.175   -119286.13   -87857.091    54.108514 
  357000   -1476.7675    3205.1345    14896.542    4846.0041    156.01026   -97675.924    7567.7402   -90108.184     302.8534    2236.2544    94685.404   -119302.85   -87020.164    53.150041 
  358000   -1467.1266    3209.0192    14940.982    4786.3386    139.30106   -97703.497    7476.4206   -90227.076    299.19888    2110.7234    95199.392   -119312.01   -87296.578    54.602314 
  359000    -1445.159     3236.913    14903.476    4769.9766    143.60398   -97641.208    7617.7844   -90023.424    304.85612    1389.9468    94939.669   -119250.02   -88098.907    53.658248 
  360000   -1513.9342    3176.6131    14866.969    4878.2858    146.03311   -97755.102    7548.5505   -90206.551    302.08544    1910.5385    94960.825   -119309.07   -87560.635    53.023284 
  361000   -1518.8372    3192.8182    14949.761    4827.3523     151.9387   -97697.682    7464.6734   -90233.009    298.72876    1663.2161    94763.736   -119300.72   -87934.391    53.600929 
  362000   -1507.8881    3164.8949    14921.532    4823.2965    150.28615   -97748.736    7593.4819   -90155.254    303.88355    2054.6823    94889.979   -119300.86   -87311.835    53.962865 
  363000   -1508.1523    3177.9632    14874.861    4854.0946    154.27214   -97766.736     7491.717   -90275.019    299.81102    1980.0331    94869.142   -119319.77   -87535.507     54.10361 
  364000   -1512.3168    3154.9741    14906.043    4761.3754    151.33354   -97806.084    7650.7079   -90155.376    306.17368    1888.4125    95211.506   -119267.49   -87533.198    54.088129 
  365000   -1436.3194    3160.8645    14974.757    4798.1811    169.23535   -97656.555    7470.2615   -90186.293    298.95239    2866.2089    94638.291   -119323.27   -86230.345    53.581365 
  366000   -1440.8903    3169.4367     14985.09    4745.3091     141.9152   -97662.849    7629.8175   -90033.032    305.33766    2246.2883    95396.585   -119263.71   -86907.858    54.054279 
  367000   -1446.4243    3183.5963      15017.3    4832.5896    144.61869   -97634.658    7583.0595   -90051.598    303.46646    2076.1251    94666.394   -119366.34   -87185.274    54.188383 
  368000   -1462.9259    3329.2379    14876.443    4779.0625    153.61218    -97654.42    7485.5222   -90168.898    299.56311    1406.2777    95124.141   -119329.85   -88217.985    53.843007 
  369000   -1476.4604    3240.8038    14967.118    4803.2714     149.5501   -97675.107     7436.102   -90239.005    297.58537     3077.532     94577.83   -119359.39   -85994.102     54.02003 
  370000   -1457.7687    3202.5464    14974.595    4799.7263    159.74201   -97630.163    7447.8469   -90182.316    298.05538    1670.6224    95061.471      -119309   -87866.208    53.394086 
  371000   -1507.9601    3192.8721    14916.388    4781.1902    142.04942   -97745.099    7500.2568   -90244.842    300.15278    921.65337    95455.837   -119269.64   -88961.785    53.631372 
  372000   -1457.8238    3181.5965    14998.429    4793.9622    134.98857   -97656.475    7411.2775   -90245.197    296.59191    3065.1529    94586.673   -119307.63   -86016.973    54.002696 
  373000   -1473.6145    3140.4286    14994.807     4801.732    141.61985   -97691.383    7604.7625    -90086.62    304.33499    1617.8462    94622.355   -119296.36   -87854.041    53.812659 
  374000   -1478.1791    3144.5286    14952.657    4761.1697    146.53543   -97778.202    7505.6637   -90272.538    300.36916     2064.861    94724.302   -119304.91   -87420.022    53.869564 
  375000   -1444.4425    3202.8469    14968.969    4746.7822    141.44437   -97711.546    7482.1678   -90229.378    299.42887    1797.2878    94550.832   -119327.15   -87751.049     54.32202 
  376000   -1400.9588    3161.2694    14968.964    4844.0531    139.03958   -97573.315    7547.8858   -90025.429    302.05884    3139.3693    94618.049   -119285.68   -85693.391    53.327392 
  377000   -1476.1493    3134.0751     14879.94     4803.725    142.70207   -97807.564    7407.2978   -90400.266    296.43265    2101.2775    95168.173   -119291.86   -87483.839    54.741022 
  378000   -1483.5096      3220.16    14949.954    4795.9035    134.00586   -97698.166    7597.6569   -90100.509    304.05063    1933.5503    94795.219   -119314.68   -87427.393    54.741015 
  379000   -1553.2157    3152.2461    14930.274    4875.7829    139.42252   -97758.735    7527.7467   -90230.988     301.2529    1264.5594    94614.065   -119303.24   -88486.087    53.506832 
  380000   -1441.7127    3191.3822    14979.362    4813.6104    148.76696   -97629.881    7606.0858   -90023.795    304.38795    2100.3614    94689.888   -119321.29   -87123.291    53.693258 
  381000   -1450.6799    3160.2189     14915.44    4760.5914    160.37636   -97719.947    7516.3589   -90203.588    300.79717    1347.1854    94987.015   -119265.89   -88337.348    54.551232 
  382000   -1424.1958    3176.5359    14989.524    4784.5779    146.82888   -97657.062     7593.706   -90063.356    303.89252    2268.7348     95062.09   -119330.33   -86918.021    54.132499 
  383000   -1476.1707    3147.7658    14931.117    4795.0438    147.40378   -97744.618    7644.2682   -90100.349    305.91597    2178.3682    94678.364   -119289.78   -87092.487    54.230585 
  384000   -1518.4031    3285.5351    14954.422    4790.3998    153.56548   -97634.843    7592.8171   -90042.026    303.85695    1457.3979    94268.587   -119300.36    -88038.38    53.943738 
  385000   -1454.5727    3198.6694     14936.67    4783.8133    139.42762   -97737.663    7506.3506   -90231.312    300.39665    1235.4169    95034.773   -119341.67   -88519.043    53.945653 
  386000   -1463.5476    3220.0477    15031.986    4736.6649    141.62564   -97634.687    7536.1369    -90098.55    301.58866    2915.2838    94845.676   -119301.46   -86066.051    53.599202 
  387000   -1481.3727    3215.5173    14946.008    4758.1509    159.86588   -97695.999    7509.1671   -90186.832    300.50936    1490.6707    94730.327   -119294.17   -88127.404      54.3828 
  388000   -1479.8044    3237.6087    14943.953    4760.2074    134.84286   -97660.748    7536.2114   -90124.537    301.59165    2350.0197    94081.004   -119257.56   -86900.133    54.054595 
  389000   -1462.7945    3214.1614    14979.902    4740.9828    137.76065   -97655.077    7577.6931   -90077.384     303.2517    692.89498     94862.09   -119265.09   -89118.787    53.264177 
  390000   -1482.9724    3157.7414    14908.291    4804.5536    139.25444   -97766.346    7474.4623   -90291.884    299.12051    2804.7888    94717.829   -119293.21   -86417.454    54.527643 
  391000   -1469.2687    3174.0217    14961.076    4772.6221     134.9867   -97746.042      7554.93   -90191.112    302.34074    2157.3892    94487.877   -119319.48   -87218.211    54.706666 
  392000   -1454.8396    3167.6871     14948.05    4706.2512    140.67604   -97839.779    7503.1063   -90336.673    300.26681    2706.1799    94952.773    -119347.6   -86589.185    54.560839 
  393000   -1453.5551    3180.5351    14941.306    4807.9838    149.68792   -97720.245    7580.2651   -90139.979    303.35463    3171.5124     94600.56    -119346.2   -85764.396    54.645122 
  394000   -1443.7304    3130.3143    15014.392     4791.485    141.82664   -97654.678     7480.236   -90174.442    299.35157    3140.3735    94707.862   -119288.97   -85836.905    54.242328 
  395000   -1448.1214     3253.123    14909.297    4775.9319    142.00227   -97655.108    7588.5549   -90066.553    303.68638    1809.4232    95057.629   -119287.34   -87558.117    54.023392 
  396000   -1457.6884    3161.0419    14963.294    4751.5604    157.76817   -97699.319    7440.1866   -90259.132    297.74883    1904.7947    94386.877    -119275.3   -87637.114    53.710954 
  397000   -1519.5847    3173.3896    14930.976    4829.0137    152.88258   -97730.219    7549.9719   -90180.247    302.14233    971.50771    95269.249    -119296.9    -88830.43     53.23472 
  398000   -1451.6079    3148.0762    14974.896    4745.9238    132.60552   -97724.718    7428.2947   -90296.423    297.27293    2931.7826     94846.21   -119274.61    -86241.08    53.620562 
  399000   -1382.9275     3190.996    14974.995    4733.0102    147.79713   -97615.257    7557.1045   -90058.153    302.42776     2458.757    94788.205   -119279.13   -86659.195    53.506074 
  400000   -1427.7906    3181.6247     14961.19     4814.894    148.14391   -97651.965    7494.7374   -90157.227     299.9319    889.54236    94598.782   -119330.03   -88929.991    53.499751 
  401000   -1511.8604    3141.9157    14872.044     4842.202    143.07841   -97809.668    7563.8139   -90245.854    302.69627    2613.7152    94606.861   -119297.05   -86639.596    53.691693 
  402000   -1448.1572    3115.3178    14956.454    4744.9816    144.79729   -97734.228    7441.1037   -90293.124    297.78553    1989.7566    94324.074   -119247.62   -87555.976    53.574014 
  403000   -1468.0051    3291.0367    14902.301    4756.4929    144.30507   -97692.751     7592.609   -90100.142    303.84862    1148.7705    94574.042   -119318.88   -88515.682    53.755643 
  404000   -1407.2218    3132.0739    14950.247     4719.318    153.84106   -97725.144    7560.9066   -90164.238    302.57992    2782.4618    94679.667    -119273.4   -86322.198    53.962935 
  405000   -1479.2298    3162.3408    14976.491    4778.9457    137.70842   -97737.449    7473.5608   -90263.889    299.08443    2291.5536    93947.402   -119313.71    -87124.17    53.957485 
  406000   -1468.6662    3173.1462    14932.656    4784.7542    151.21398   -97691.563    7545.1904   -90146.373    301.95097    2233.6966    95243.767   -119264.67   -87043.695    54.067682 
  407000   -1480.1612    3205.5442    14920.355    4743.4477    154.07211   -97731.309    7618.5771   -90112.732    304.88784    652.23666    94811.614   -119274.57   -89210.865    52.720983 
  408000   -1452.6784    3225.2777    14970.709    4780.3072    134.80472   -97637.904    7485.9781   -90151.926    299.58136    2110.9272     94918.07   -119296.32   -87229.806    53.965576 
  409000   -1471.9689    3166.0916    15011.704    4749.2712    145.09555   -97660.274    7469.6463   -90190.627    298.92777    1478.3838    94759.843   -119260.47   -88147.538    54.469536 
  410000   -1409.1109    3219.7241    15001.241    4705.7714    146.92404   -97640.359    7472.5951   -90167.764    299.04578    1777.0946    95082.003   -119304.91   -87703.514     53.86892 
  411000   -1459.0184    3203.4982    14992.846    4750.6338    139.31676   -97693.895    7533.3111   -90160.584    301.47558    1755.4891    95033.816   -119321.17   -87727.528    53.832196 
  412000   -1475.9567    3254.7047    14886.573    4810.3425    135.01967    -97694.58    7412.3845   -90282.195    296.63621    2313.2795    94181.505   -119305.26   -87104.812    53.535199 
  413000   -1384.2949    3188.4073    14917.443    4760.1616    146.10053   -97705.368    7531.4463   -90173.922    301.40095    2529.5411    94858.756   -119333.19    -86674.51    54.595184 
  414000   -1436.4994    3279.9732    14962.568    4794.6853    141.54033   -97528.064    7509.6004   -90018.463     300.5267    1320.9111    94591.402   -119270.33   -88196.242    54.476023 
  415000   -1452.9112    3243.2148    14981.847    4761.1705    128.46435   -97664.491    7500.3462   -90164.145    300.15635    2871.2475     94680.64   -119326.28   -86199.469     53.39246 
  416000   -1455.5402    3235.0947    14934.325     4784.415    153.38152   -97644.632    7571.4918    -90073.14    303.00353    1048.3518    95076.769   -119296.31   -88619.499    53.425128 
  417000   -1488.9293    3139.0606    14980.887    4803.4323    139.67161   -97755.634    7447.7993   -90307.834    298.05348     3103.093    94048.984   -119329.76   -86051.607    54.040118 
  418000   -1543.7763    3162.5741    14965.879    4857.6354    137.64236   -97681.242     7549.644   -90131.598     302.1292    1147.3182    94626.949    -119261.2   -88548.256    53.606532 
  419000   -1508.7206    3179.5909    14898.656    4788.9102    151.69665   -97781.453    7525.2016   -90256.252    301.15104    1482.0562    94317.385   -119291.59    -88217.65    53.760695 
  420000   -1483.8683    3244.2576    14962.055    4826.3915     152.4895   -97600.791      7486.89   -90113.901    299.61785    2850.9658    93980.851   -119302.12   -86206.327    54.047367 
  421000   -1502.8648    3078.9303    14984.654    4747.5912    143.08405   -97838.955    7468.6714   -90370.283    298.88876    2527.0412    94614.997   -119290.35   -86883.314    54.425776 
  422000   -1536.8728    3173.3491    14920.427    4827.6876    143.95892   -97751.839    7491.4694   -90260.369    299.80112    2741.1172     94030.35   -119280.39   -86501.376    54.153114 
  423000   -1426.9219    3173.6162    14983.678    4782.7066    143.63989   -97646.226    7615.1895   -90031.037    304.75227     2516.092    94887.161   -119302.94   -86549.188    53.713461 
  424000   -1465.1168    3111.7985      14915.6    4818.8096    145.15089   -97786.769     7435.852   -90350.917    297.57536    3300.6429    94436.909   -119313.01   -85805.056    54.326568 
  425000   -1499.0947    3157.8999    14900.175    4837.5403    153.52377   -97746.487    7595.9752   -90150.512    303.98333    1749.0335    94512.111   -119296.53    -87739.71    53.534056 
  426000   -1450.4802    3101.7234    14943.995    4781.2181     148.8542   -97732.968    7560.7179    -90172.25    302.57237    2412.8151    94484.507   -119258.28   -86847.488    54.380534 
  427000   -1433.7954    3089.4673    14983.344    4766.9557    143.50489   -97765.611    7555.2325   -90210.379    302.35285    1642.9343    94768.098   -119315.09   -87939.687    54.885923 
  428000   -1487.8968    3189.8654     14965.64    4730.2176    138.70231   -97740.731    7569.3515    -90171.38    302.91788    569.37444     94890.48   -119277.26   -89383.433    54.360624 
  429000   -1393.4974    3177.9503    14914.831    4711.8351    150.08076   -97706.988    7448.1862   -90258.802    298.06896    2827.8826     94956.09   -119268.19   -86342.645    53.809694 
  430000   -1448.4738    3177.0777    14891.379    4841.7537    130.33853   -97706.971    7499.4676   -90207.503    300.12119    2416.7631    94239.514   -119299.05   -86885.936    52.568842 
  431000   -1404.7862    3152.9234    14991.072    4718.1163    145.98719   -97651.619    7512.9941   -90138.625    300.66251     1963.051    95018.323   -119254.93   -87418.337    54.621557 
  432000   -1407.7052    3181.7568    14919.559    4733.5204    130.07433   -97715.548    7412.2314   -90303.316    296.63009    1903.1813    94948.841   -119272.75   -87667.921    53.316961 
  433000    -1500.706    3138.9446    14935.902    4791.2542    156.68229   -97776.802    7408.8325    -90367.97    296.49407    1042.0349    94514.038   -119298.88   -88931.639    54.299346 
  434000   -1443.6637    3164.1081    14906.173    4820.9832    135.87176   -97711.966    7500.8214   -90211.145    300.17537    1742.2042    94833.064   -119295.44   -87801.602    53.416261 
  435000   -1412.3233     3258.859    14947.449     4752.163    144.61515   -97619.516    7543.9049   -90075.611    301.89953    2363.3631    95101.518   -119310.28   -86797.725     54.55666 
  436000   -1425.0959    3223.7135     14974.95    4734.0944    140.59539   -97649.155    7469.3678   -90179.787    298.91663    2473.8672    94181.778   -119297.41    -86781.82    53.944532 
  437000   -1440.2792    3196.0547    14984.665    4630.0648    133.91068   -97780.884    7639.5112   -90141.373     305.7256    3138.8466    94829.266    -119285.3   -85800.387    54.708653 
  438000   -1458.4622    3102.4923    15003.186    4716.8986    135.67572   -97749.152    7589.7289   -90159.423    303.73336    2549.1574    94560.211   -119248.94   -86643.973    54.330252 
  439000   -1421.8144    3129.7081    14936.202    4712.8219    133.75189   -97781.673    7612.1749   -90169.499    304.63163    2424.5462    95315.159   -119272.34     -86799.2    55.231686 
  440000   -1397.6617    3244.3069    14944.714    4729.9722    141.22534   -97594.365    7512.0746    -90082.29    300.62571    2099.1197    95062.313   -119256.92   -87172.099    54.517607 
  441000   -1479.3763    3156.5234    14934.598    4741.5737     130.0096   -97786.769    7488.1485   -90298.621    299.66821    1114.6918    94451.121    -119270.1   -88763.163    54.386902 
  442000    -1454.746    3249.9361    14958.844    4795.8978    147.19392   -97641.033    7491.5148   -90149.518    299.80293    1337.5677    95103.153   -119338.16   -88294.336    54.571972 
  443000   -1403.4052    3138.4039    14820.675    4815.2567    156.90496   -97739.045    7481.9476   -90257.097    299.42006    2334.3704    95105.515   -119266.88   -87019.287    53.907193 
  444000   -1450.2998    3257.3321    14902.491     4784.021    136.63081   -97670.899    7533.2988     -90137.6    301.47509    711.45112    95020.819   -119301.07   -89151.684    53.619889 
  445000   -1453.5718    3122.7572    14950.059    4735.0125    152.54429   -97750.117    7569.6812   -90180.436    302.93107     2469.577    94679.485   -119256.92   -86770.436    54.450581 
  446000   -1462.2613    3174.7312    14935.656    4732.4772    136.19285   -97780.664    7409.7073   -90370.957    296.52907    581.31916     94852.05   -119297.46   -89566.807    53.467241 
  447000   -1445.8243    3212.8881    14931.754    4781.7886    148.47798   -97664.942    7525.7668   -90139.175    301.17366    2324.9359    94605.621   -119294.03   -86931.401    54.615654 
  448000   -1450.9166    3095.5883    14898.657     4825.024    145.63555   -97801.292    7525.9418    -90275.35    301.18066     3294.369    94524.756   -119315.28   -85733.909    54.070296 
  449000   -1475.4188    3163.8721    15009.212    4818.2432    138.59213   -97646.974    7564.5129   -90082.461    302.72424    2478.5532    94695.948   -119301.47   -86659.471    53.922213 
  450000   -1433.6156    3186.9958    14988.669    4798.6636    148.89102   -97602.754    7448.2731    -90154.48    298.07244    3534.9446    94472.543   -119292.36   -85284.086    54.381732 
  451000   -1448.6128    3168.1481    14871.552     4750.784    153.80516   -97834.088    7604.9808   -90229.107    304.34373    1466.4975    94965.985   -119329.76   -88198.036    54.306485 
  452000   -1418.0735    3144.9269    14874.424    4746.0335    147.32869   -97792.504    7502.1674   -90290.337    300.22924    930.37754    94446.604   -119287.14   -89008.828    54.689657 
  453000   -1428.8705     3146.488    14937.814    4709.0076    133.01137   -97764.706    7601.5208   -90163.185    304.20526    2156.5986    95277.372   -119262.16   -87166.542    54.505106 
  454000   -1464.1919    3182.7783    15013.672    4795.3827    150.24974   -97638.501    7672.3615    -89966.14    307.04023    1929.9402    94809.687   -119316.39   -87297.607    54.187305 
  455000   -1450.5244    3206.5811    14921.118    4809.2368    134.31357   -97674.802    7466.0541   -90208.748    298.78402    2012.2832    95102.997   -119295.53   -87417.752    54.569917 
  456000   -1463.1452    3241.9485    14891.319    4799.1012    160.49345   -97667.216    7483.0297   -90184.186    299.46336    884.51043    95052.151   -119296.93   -88958.044    54.010259 
  457000   -1445.6671    3175.6785    14920.569    4772.0415    140.82024   -97714.727    7609.2478    -90105.48    304.51449    894.48172     95412.95   -119278.17   -88860.808    52.229309 
  458000   -1504.9058    3136.8188    14971.695    4775.5357     150.0959   -97758.859    7452.1057   -90306.753    298.22582     774.6005    95543.714    -119288.1   -89227.419    54.002854 
  459000   -1450.8153    3214.9216    14906.162    4767.7947    151.49103   -97702.229    7463.4986    -90238.73    298.68175    614.94307    94851.985   -119291.78   -89388.068    54.325198 
  460000   -1495.4953    3210.3081    14937.154    4745.2446    134.48564   -97780.983    7588.2509   -90192.732    303.67421     1286.878    95029.928   -119312.68   -88409.229     53.48635 
  461000   -1506.1528    3150.5315    14942.085    4876.4216    142.38243   -97727.197    7540.4869    -90186.71    301.76274    3620.2497    94096.177   -119332.46   -85218.655     54.63347 
  462000   -1437.2726    3291.7727    14979.232    4798.4017    147.64285     -97586.5     7443.527   -90142.973    297.88251     3147.032    94289.158   -119366.28   -85815.456    54.294741 
  463000   -1503.0281      3206.22     14935.84    4767.5016    149.05589   -97751.664    7642.4902   -90109.174    305.84481    2045.7437    94826.307   -119307.25   -87280.024    53.530683 
  464000   -1493.1748    3219.1021    14951.375    4759.9076    129.50352     -97726.2    7407.7416   -90318.458    296.45041    1371.8362    94969.767   -119292.91   -88418.415    54.512276 
  465000   -1520.7717     3101.998    15039.515    4742.1103    139.52613   -97787.849    7629.3751   -90158.474    305.31996    2282.8361    94443.026   -119290.23   -87014.199    54.045906 
  466000   -1506.4681    3203.9943     14988.54    4753.7439    140.37385   -97712.638    7555.1647   -90157.473    302.35014    495.74752     95280.31   -119292.82   -89468.599    54.012217 
  467000   -1404.6476    3191.6254    14995.717    4726.4179     160.8157   -97655.056    7567.6621   -90087.394    302.85027    2427.8369    94496.951   -119324.98   -86741.492    54.261423 
  468000   -1445.1646    3132.8037    15011.237    4756.2367    141.40703   -97703.692    7644.2581   -90059.434    305.91556    1752.5985    94727.353   -119300.21   -87638.217    54.101491 
  469000   -1421.5666     3241.372    15000.615    4736.4449    129.57196   -97603.234    7434.4843    -90168.75    297.52063    3273.4825    94025.944   -119289.67   -85679.915    53.331814 
  470000   -1464.1984    3197.6778    14875.851    4716.2404    152.03456   -97821.588    7432.4733   -90389.115    297.44015    1063.5228    95312.008   -119299.19   -88910.789    53.387133 
  471000   -1414.3766    3208.3546    14889.519    4741.5229    136.32203     -97715.6    7515.9667   -90199.634    300.78147    3175.1388    94932.315   -119276.94   -85803.684    54.484761 
  472000   -1508.4036    3148.0903    14937.747     4866.737    143.29644   -97746.828    7572.6669   -90174.161    303.05056    2382.1762    94194.954    -119334.3   -86901.678    53.859081 
  473000   -1450.5285    3164.3299    14964.121    4752.8038    147.01798   -97728.719    7452.0581   -90276.661    298.22391    2313.6923    94782.012   -119306.46   -87078.447    54.279334 
  474000   -1440.2638    3226.1002    14920.701    4778.7739    146.60846   -97680.893    7484.2994   -90196.594    299.51418    1586.2781    94280.319   -119312.81    -88015.49    53.704975 
  475000   -1476.0662    3220.2935    15033.139    4727.0361    148.80378   -97612.155    7580.7708   -90031.384    303.37487     1951.913    94663.072   -119265.36   -87336.643    55.000748 
  476000   -1468.4109    3117.2881    14968.727    4766.8258     139.2102   -97718.886    7586.9646   -90131.921    303.62274    900.48507    95138.857   -119242.53   -88882.496    53.153524 
  477000   -1550.4922    3230.5384    14985.236    4847.7337    147.80957   -97640.951    7580.5646   -90060.386    303.36662    2011.2642     93996.36   -119301.78   -87303.264    52.973613 
  478000   -1446.7604    3112.8613    14953.187    4789.3721    155.96785   -97710.334    7518.6276   -90191.706    300.88796    2422.1986    94389.883   -119274.96   -86857.357    52.663581 
  479000   -1425.2973    3160.0577    14956.631    4725.2174     133.0368   -97767.065    7534.9676   -90232.098    301.54187     2857.062    94558.623   -119316.71   -86292.093    53.070483 
  480000   -1495.6778    3173.5156     14931.35    4854.8043    132.40533   -97741.893    7505.2024   -90236.691    300.35069    2146.6321    93717.085   -119338.29   -87302.744    53.693691 
  481000   -1516.7754    3197.2996    14876.187    4832.2811    132.51058   -97781.779    7483.0488   -90298.731    299.46413    1762.9402    94181.721   -119303.28   -87877.255    53.541678 
  482000   -1417.4464    3174.3706    14944.824    4823.1951    150.46789   -97647.068    7535.2235   -90111.845    301.55211    2730.6134    94958.693   -119322.48   -86330.286    53.623504 
  483000   -1511.9909    3206.5193    14997.332    4841.9755    136.87071    -97644.97    7548.0567   -90096.913    302.06568    990.06584    94559.341   -119315.68   -88731.562    53.838281 
  484000   -1465.1217    3146.0572    14889.101    4771.8664    139.73444    -97800.14     7497.008   -90303.132    300.02276    1762.8694     94308.25   -119281.78   -87878.501     53.90013 
  485000   -1463.5422    3198.2132    14883.294    4775.4162    129.53679   -97786.412    7577.2816    -90209.13    303.23523    2088.0352    94193.419   -119309.33   -87340.766     54.27366 
  486000   -1503.1595    3124.0894    14910.056    4781.2524    134.37497   -97836.234    7550.1001   -90286.134    302.14746    1717.8819    94361.247   -119282.85    -87922.05    53.525291 
  487000   -1457.6636    3178.3885    14982.196    4793.5269    139.97755   -97627.374    7512.4795   -90114.895    300.64192    3207.2779    94179.193    -119263.8   -85709.676    54.358302 
  488000    -1514.416    3153.5223    15067.346    4776.2401    148.53783   -97732.182    7551.5658   -90180.616    302.20611    2265.9822    94243.655   -119363.41   -87066.144    53.954681 
  489000    -1527.818     3115.047    14990.973    4814.0139    156.46752   -97741.553    7556.0419   -90185.511    302.38524    3191.3273    93537.738   -119290.24   -85832.056    54.301181 
  490000   -1482.6354    3134.2673    14941.132    4780.3167    149.46047   -97746.614    7500.4415   -90246.173    300.16017    2168.6261    94249.492   -119269.16   -87265.326    54.533028 
  491000   -1503.0084    3176.7606    14857.353    4810.6606    137.07284   -97811.277    7432.6126   -90378.664    297.44572    3271.1664    94553.852   -119290.12   -85867.821    53.880884 
  492000   -1483.6852    3221.7933    14973.137    4834.2032    141.09765   -97650.125    7572.6081   -90077.517     303.0482    2765.0239    93919.278   -119336.67   -86290.219    53.635842 
  493000    -1499.246    3270.7073    14959.489    4805.3206    147.67884   -97674.471     7594.456   -90080.014    303.92254    2211.5754    94354.343   -119358.42   -87036.751    53.722436 
  494000   -1490.7735    3207.8033    14866.187    4813.2617    144.28144   -97739.554    7460.5502   -90279.004    298.56376    1434.7863    94721.612   -119280.31   -88296.965    53.767496 
  495000   -1516.1641    3246.6067    15010.043    4780.0383     153.7849   -97623.308    7487.0039   -90136.304    299.62241     1265.169    94580.231   -119297.62   -88391.187    53.424669 
  496000   -1451.2349    3237.7832      14914.1    4785.5515    145.53199   -97652.179    7495.8729   -90156.306    299.97734    2186.3356    94619.707   -119283.91   -87139.313    54.471325 
  497000   -1479.4077    3176.4233    14882.242    4814.8384    146.62298   -97781.761    7515.0773   -90266.683    300.74588    2287.6131    94585.747   -119322.48   -87111.067    53.717163 
  498000   -1488.8618    3270.7243    15029.416    4782.1687    154.80497   -97557.649    7577.9701   -89979.679    303.26278    2105.9993    94818.104    -119305.9   -87067.451    53.180599 
  499000   -1438.4327    3084.7101    14896.933    4797.9803    154.82706   -97776.391    7526.9703   -90249.421    301.22183    2026.4906    94770.042   -119272.41    -87448.56    54.890441 
  500000   -1465.6805    3181.1348    14829.312    4786.6126    168.00838   -97790.738    7453.7957   -90336.942    298.29345     1392.373    94547.734   -119290.13   -88417.025    53.546882 
  501000   -1492.1477     3259.832    14900.084    4733.7277    140.31918   -97736.932    7614.2801   -90122.652    304.71587    2291.0473    94617.733   -119278.75   -86961.229     53.42138 
  502000   -1431.3849    3127.4098    14994.454    4774.1382    141.52458    -97719.32    7463.4437   -90255.876    298.67955    2122.8923    94731.388   -119325.46   -87322.973     53.46695 
  503000   -1476.4234    3189.6626    14910.982    4787.1432    145.65573   -97709.932    7617.4847   -90092.448    304.84412    2338.9388    94598.565   -119266.95   -86865.594     53.28687 
  504000   -1443.0143    3113.8816    14920.986    4712.2995    141.44383   -97812.462    7448.1171   -90364.345     298.0662     2359.998    94099.979   -119258.06   -87125.598     54.24512 
  505000    -1475.662    3226.2045    14982.271    4798.5285    168.99801    -97605.68     7535.209   -90070.471    301.55153    1863.7261    94069.961   -119306.02     -87513.6    53.326477 
  506000   -1452.5605    3180.5141    14935.387    4753.0672    130.73176   -97752.571    7465.7788   -90286.793      298.773    2364.6346    94405.301   -119299.71   -87031.153     54.65807 
  507000    -1474.722    3174.5461    14972.334    4763.4797    137.85691   -97722.643     7634.927   -90087.716    305.54214    1808.8158    94514.536   -119296.14   -87594.448    54.669285 
  508000   -1438.6372    3138.3255    14924.023    4708.6451    165.59584    -97751.49    7495.9401    -90255.55    299.98003    2949.1032    94091.971   -119249.44   -86208.688    53.648639 
  509000   -1466.6495    3230.1234    15014.714    4774.1063    134.44375   -97612.729    7577.2015   -90035.528    303.23203    2240.0733      93948.4   -119299.47   -86966.312    53.550489 
  510000   -1464.0641    3197.6047    14896.702    4744.8489    139.42015   -97790.985    7493.7053   -90297.279    299.89059    1717.2954    94488.608    -119305.5   -87930.813     54.39673 
  511000    -1478.884    3158.6888    14818.931    4793.7176    151.01222   -97864.102    7505.6776   -90358.424    300.36971    1231.9643    94115.269   -119307.57   -88667.461    54.514196 
  512000   -1457.9009    3187.8345    15001.276     4834.349    125.37118   -97606.732    7510.4152   -90096.317    300.55931    1662.2002    94463.922   -119297.66   -87806.371    54.814217 
  513000   -1499.8857    3125.5648     15062.16    4803.1713    143.34633   -97630.087    7356.3166   -90273.771    294.39243    2785.9813    94397.687   -119264.44   -86438.329    54.786199 
  514000    -1455.159    3200.1894    14983.452    4777.4569    128.94271   -97630.554    7545.2124   -90085.341    301.95186    737.02773    94704.788   -119265.44   -89067.379    54.973753 
  515000   -1437.1174    3147.7253    14889.473    4770.0212    147.74531   -97799.296    7444.5823   -90354.713    297.92474    2629.9925    94670.088   -119317.14   -86723.572    54.474527 
  516000   -1409.2915    3219.3339    14902.793    4770.3626    128.47808   -97661.471    7596.8719   -90064.599    304.01922    2418.8382    95187.485   -119273.15    -86706.74    54.441418 
  517000   -1480.1394    3109.9724    14943.643     4756.169    156.74802   -97831.763    7452.6844   -90379.079    298.24898    2265.9444    94197.789   -119318.16   -87266.174    54.688599 
  518000   -1443.6467    3198.4972    14942.835    4743.9111     150.4138   -97705.188    7545.8159   -90159.372    301.97601     3062.335    94710.168    -119297.2    -85929.52    55.388443 
  519000   -1464.4859    3184.1509      15008.6    4751.3016    148.61832   -97676.775    7457.6517   -90219.124    298.44776    2361.7384    94392.985   -119304.96   -86967.896    53.747024 
  520000   -1460.7609    3253.4968     15007.35    4786.5725    139.89355   -97582.281    7597.6107   -89984.671    304.04878    2050.2751    94764.878   -119308.83   -87151.091    54.165559 
  521000   -1429.2114    3190.5802    14938.523    4763.7543    152.23075   -97622.591    7449.8795   -90172.712    298.13673    2112.3017    95265.607   -119238.47   -87237.983    54.302814 
  522000   -1466.4553    3143.6473    14910.319    4771.4187     134.9957   -97787.372    7534.2089   -90253.163    301.51151    2132.3716    94744.829    -119281.3   -87306.746    53.598752 
  523000   -1484.9218    3160.2959    14953.131    4768.5307    141.37743   -97721.347     7562.638   -90158.709    302.64921     2554.231    94522.943   -119259.76    -86637.65    54.531618 
  524000   -1364.4924    3135.3761    14887.843    4724.4974    145.71626   -97679.026    7430.5191   -90248.506    297.36195    2775.1733    95532.105   -119207.97    -86382.03    54.431266 
  525000    -1493.725    3191.1515     14877.13    4782.6434    126.05937   -97788.559    7600.7241   -90187.835    304.17338     1718.598    94477.456   -119271.82   -87819.853    54.541344 
  526000   -1481.6722     3081.248    15054.097    4737.2405    135.76871    -97770.23    7451.5796    -90318.65    298.20477    1824.8485    94802.296   -119296.91   -87795.625    54.321055 
  527000   -1460.8735     3153.346    14921.353    4724.4214    145.11029   -97776.051    7539.1389   -90236.912     301.7088    1798.4275    94566.101   -119259.41   -87756.611    53.414615 
  528000   -1484.6691    3168.6123    14997.377    4728.8268     140.5187   -97703.917    7608.8884   -90095.029     304.5001    1158.9378    94518.594   -119254.58   -88497.483    53.088616 
  529000   -1471.8086    3186.7189    15005.246    4770.7251    137.79195   -97632.791    7429.5468   -90203.245    297.32303    1736.1082    94385.631   -119261.46   -87813.461    54.178557 
  530000   -1436.2402    3158.5375     14917.85     4781.924    153.90551   -97729.294    7619.7997   -90109.495    304.93676    2154.1424    94745.534   -119305.27   -87132.973    54.365903 
  531000   -1526.9758     3128.046    14914.941    4786.5024    147.92672    -97795.58    7322.6205   -90472.959    293.04395    2050.4999    94022.096   -119246.02   -87661.282    54.214059 
  532000   -1516.0892    3176.8201    14942.252    4840.2071     144.9923   -97681.631    7513.5694   -90168.062    300.68553     1777.271    94483.007   -119269.81   -87719.093    54.138293 
  533000   -1457.6065    3169.9648    14945.668    4709.5308    143.04696   -97778.751    7436.8917    -90341.86    297.61697    2286.4049    94956.076   -119289.35   -87175.562    54.351084 
  534000   -1485.8223    3105.6548    14941.977    4717.9851    136.12994   -97852.486    7538.4502   -90314.035    301.68124    3043.7294    94670.509   -119268.41   -86111.643    54.391318 
  535000   -1503.7821    3136.4315    14876.952    4848.0001    143.72595   -97786.901    7576.5782   -90210.323    303.20708    1707.0496    94461.686   -119288.23   -87858.645    54.067121 
  536000   -1400.8316    3193.7299    14971.622    4732.5493    135.43502   -97662.664     7600.445   -90062.219    304.16221    3247.0293    94809.589   -119295.17    -85572.55    54.429719 
  537000   -1488.1416    3158.8342    14919.246     4779.701    130.17476   -97786.477    7447.5158   -90338.961    298.04214    617.51734    94937.905   -119286.29   -89483.964    54.098198 
  538000   -1456.4205    3141.6482    15007.882    4748.9105    148.71006   -97689.596    7558.7515   -90130.845    302.49368     2535.047    94975.256   -119280.33   -86619.509    53.904526 
  539000   -1504.9336    3125.4796    14864.202    4729.0438    133.31634   -97917.084    7683.3125   -90233.772    307.47848    1523.7623    95051.987   -119264.19   -88121.478    54.763574 
  540000   -1460.5529    3131.9112    14943.228    4762.9854    143.69632   -97783.641    7527.9243   -90255.717       301.26    1885.9417    94834.621   -119304.91   -87647.336    54.179869 
  541000   -1435.8046    3238.6062    14940.265    4742.3587    138.14827   -97642.702    7522.8159   -90119.886    301.05557    2750.0092    94998.848   -119266.28   -86309.856    54.502123 
  542000   -1491.7592    3161.0189    14945.318    4749.1591    148.89854   -97761.741    7570.4259   -90191.315    302.96087     2600.978     94039.08   -119274.38   -86624.168    53.316741 
  543000   -1473.0146    3095.1599     14910.96    4792.5262    142.03314   -97828.193    7563.9352   -90264.258    302.70112     2691.477    94940.615   -119295.86   -86537.608    53.772767 
  544000   -1509.9625    3153.1346    14887.827    4803.8857    135.59938   -97816.875     7612.957   -90203.918    304.66293    1901.7979    94211.363   -119287.36   -87590.893    54.228459 
  545000   -1483.2687    3200.8618     14949.78    4766.8809    149.84969    -97673.97    7404.7706   -90269.199    296.33151    2504.2767    94632.802   -119258.07   -86812.991    53.952454 
  546000   -1474.3067    3299.6429    15040.666    4802.5324    152.96811   -97490.459     7535.611   -89954.847    301.56762    2075.6894    94505.199   -119311.96   -87094.005    54.199566 
  547000   -1466.0493    3240.2011    14900.985    4792.7151     145.2529   -97723.645     7541.807   -90181.838    301.81558    3031.3504    94314.329   -119336.75   -86012.283    53.867991 
  548000   -1572.9089    3146.3783    14985.211     4791.968    137.06134   -97795.441    7481.7924   -90313.649    299.41385     966.2962    93666.701   -119283.15   -88993.657    53.120726 
  549000   -1541.5675    3148.3357    14973.426    4679.5622    138.91234   -97872.442    7508.1231   -90364.319    300.46758    1142.0922     94502.08   -119271.11   -88790.269    52.863812 
  550000    -1471.529    3201.1341    14970.038    4694.3298    150.43434   -97764.942    7571.6412     -90193.3    303.00951    2125.3441     94616.98   -119309.35   -87260.556    54.353726 
  551000   -1411.4007    3197.9336    14952.391    4643.3885    156.67306   -97743.011     7424.852   -90318.159    297.13515    1246.8145    94453.555      -119282   -88600.662    53.607104 
  552000   -1506.8631      3241.91    14917.918    4765.6706    150.84206   -97732.319    7578.1271   -90154.192    303.26907    2905.5525    94345.168    -119301.8   -86156.362    52.706072 
  553000   -1450.6631     3113.631    14928.321    4730.7321    142.14946   -97838.211    7506.8895   -90331.321    300.41821    1765.1928     94793.41   -119302.38   -87891.005    54.038366 
  554000   -1495.0292    3258.9025    15036.628    4763.7025    136.81079   -97573.237    7567.5828   -90005.654     302.8471    2409.6763    94252.338   -119274.25   -86693.377    53.409902 
  555000   -1439.2076    3196.2173    14902.322    4770.9959    154.82908   -97683.978    7479.1719   -90204.807    299.30898    1853.9535    93836.382   -119269.14   -87667.658    52.857003 
  556000   -1508.6912    3162.0808    14911.619    4777.2681    141.72707   -97789.464    7476.4792   -90312.985    299.20122     510.7884    94963.568   -119273.47    -89605.57    53.838714 
  557000    -1462.712    3280.5016    14952.581    4791.8129    148.38526   -97605.476    7577.6645   -90027.811    303.25056    2719.9544    93911.443   -119316.04   -86302.556    53.743686 
  558000   -1504.5006    3175.2832    14908.718    4799.3248    152.05172   -97748.288    7577.2411   -90171.047    303.23361    1959.0446    94527.054   -119279.16   -87470.347     53.24658 
  559000   -1467.3374    3182.9351    14861.956    4802.3194    141.83431   -97745.508    7550.1807   -90195.328    302.15068     1742.472    94849.307   -119267.22   -87785.001    53.778134 
  560000   -1508.7598    3190.3604    15006.808    4777.3553    139.66486    -97681.97    7497.0619   -90184.908    300.02492    1402.5736    93868.417    -119287.4    -88264.82    53.170215 
  561000   -1461.3424    3135.0963    14878.814    4758.0465     147.6104   -97833.491    7476.3418   -90357.149    299.19572    3135.7445    94326.156   -119291.72   -86043.462    52.980153 
  562000   -1491.2329    3123.7167    14938.666    4735.5141    153.26304   -97840.746    7552.6988   -90288.047    302.25145    1882.6574    94170.887   -119300.67   -87702.432    53.280297 
  563000   -1429.8799     3194.944    14931.839    4720.6926    145.89906   -97694.044    7497.4079   -90196.636    300.03877     1258.251    94703.462   -119257.54   -88458.799    54.461209 
  564000    -1459.246    3131.3783    14937.194    4705.5583     143.9505   -97788.149    7371.2662   -90416.883     294.9907    2589.5727    94237.414   -119246.98   -86857.888    53.836667 
  565000   -1518.1473    3195.4259    15038.348    4738.0253     140.6371   -97676.392    7553.4492   -90122.943    302.28148      2366.41    94324.238   -119270.68   -86867.657    53.555369 
  566000   -1422.4166    3146.5806    14876.802    4724.7705    146.99519   -97773.821    7608.7973   -90165.024    304.49646    3701.6106    93539.364   -119246.55   -85115.377    53.515446 
  567000   -1427.1866    3169.8317    14970.178    4715.7126     138.8014    -97726.74     7568.981   -90157.759    302.90305    3076.7971    93867.693   -119294.08   -85945.735    53.120641 
  568000   -1435.8969    3249.4234    15000.289    4691.9572    151.92579   -97648.264    7623.0278   -90025.236    305.06595    2569.9279    94364.567   -119305.96   -86488.475     53.62085 
  569000   -1480.5477    3136.1009    14968.551    4744.9934    137.09047   -97760.804    7440.6163   -90320.188    297.76602    2203.7472    94531.078   -119266.99   -87282.016    54.528098 
  570000   -1503.8965    3131.3264     14950.02      4733.71    135.66642   -97792.678    7531.8667   -90260.811    301.41777    2229.7193     94184.51    -119239.5   -87198.103    54.133657 
  571000   -1485.4349    3186.8021    14907.986    4799.2551    140.09605   -97760.192    7554.2769   -90205.915    302.31461    1789.5093    94525.055    -119308.9   -87738.985    53.783662 
  572000   -1461.1174    3091.2469    14944.594     4767.287    135.58025   -97790.799    7651.8929   -90138.906     306.2211    1617.9575    94260.274   -119268.39   -87914.717    53.476814 
  573000   -1434.4442    3151.9262    14933.253     4696.892    146.68095   -97814.368     7452.549   -90361.819    298.24356    1649.7786    94985.868   -119308.68   -88076.427    54.360374 
  574000   -1553.8956    3228.0172    14998.317    4781.9121    127.55804   -97726.259    7438.6917   -90287.567    297.68901     1926.305    94127.018   -119308.17   -87643.239      53.5023 
  575000   -1465.9351    3193.6858    14816.934    4752.8364    131.57774   -97831.779    7510.3766   -90321.402    300.55776    435.94179    94486.741   -119260.88   -89720.678    54.154988 
  576000   -1421.9666     3213.115    14826.663    4769.5266    146.03392   -97733.817    7534.1659   -90199.651    301.50978     2199.269    95104.745   -119267.19   -87149.253    54.182232 
  577000   -1456.4151    3186.6476    14918.492     4676.523    137.76792   -97812.642     7530.566   -90282.076    301.36572    1511.7398    94643.639   -119275.66   -88195.452    54.352056 
  578000   -1497.9597    3221.3986    14930.854    4732.0496    149.07997   -97741.983    7521.9459   -90220.037    301.02075     1780.962     94470.77   -119277.41     -87766.3    54.074004 
  579000   -1518.0608    3151.8427    14998.931    4773.3967    142.19756   -97771.841    7591.5482   -90180.293    303.80617    2812.2515    94429.521   -119320.15   -86307.379    53.840511 
  580000   -1469.0086    3156.2366    14908.348    4773.5902    152.03182   -97753.093     7384.864   -90368.229    295.53487    1451.6141      94333.9   -119274.29   -88371.152     54.01738 
  581000   -1436.0829    3137.2902    14946.517    4736.6362    137.88519   -97740.912    7588.2699   -90152.642    303.67497    2911.1054    94059.256   -119263.16   -86159.311    54.018711 
  582000   -1518.2789    3073.1843    14862.636    4776.1399    151.34729   -97902.405    7589.4178   -90312.988    303.72091    1906.5669    94033.218   -119247.43   -87698.364    54.051456 
  583000   -1503.8129    3169.8238    14906.521    4784.0351     154.0715   -97758.599    7439.6336   -90318.966     297.7267    1656.2072    94695.598   -119269.24    -88031.68    53.933587 
  584000   -1500.6734    3216.1441    14925.123    4755.0859    147.76421    -97710.62    7491.8148   -90218.805    299.81494     1100.244    94108.838   -119254.06   -88708.741    53.957264 
  585000    -1485.168    3203.9859    14927.082    4739.9004    132.46727   -97755.977    7686.5585   -90069.419    307.60838    1877.2741    94400.609   -119274.25   -87484.908    53.175978 
  586000   -1435.7289    3140.3735    14893.744    4760.1844    141.72593   -97803.338    7554.8921   -90248.446    302.33923    1825.3948    94370.264   -119303.64   -87736.167    54.058741 
  587000    -1454.901    3194.8117    14880.388    4785.5266    151.22478    -97700.99    7617.2666   -90083.723    304.83539    2529.3475    94024.241   -119258.04   -86615.363    53.804512 
  588000   -1435.5255    3123.7832    14960.144    4799.1144    135.78486   -97721.872    7494.5607   -90227.311    299.92482     3838.334    94655.632   -119305.17   -84928.663    54.121524 
  589000   -1463.6206    3147.6153    14947.098     4769.329    146.77783   -97718.311    7600.5059   -90117.805    304.16465    2252.0184    94685.989   -119265.51   -87007.997    54.562151 
  590000   -1421.6752    3204.0688    14960.999    4760.3465    138.89394   -97689.335    7552.7762   -90136.559    302.25455    2198.7553    94343.916   -119331.97   -87111.271     53.22218 
  591000   -1492.4519    3144.3727    14852.533    4712.5164    147.60054   -97904.673    7491.6063   -90413.066    299.80659    1075.1383    94392.159   -119269.24   -88933.017    54.175416 
  592000   -1476.2219    3119.3769    14977.004    4748.1675    144.84032   -97758.362    7591.7782   -90166.584    303.81537     2073.269    94442.118   -119271.53   -87310.985    53.897565 
  593000   -1474.4518    3154.7174    14906.312    4745.6246    151.97912   -97797.519    7477.3804   -90320.139    299.23729    1747.8701    94443.879    -119281.7    -87912.68    54.787922 
  594000   -1460.8929    3230.2752    14902.215    4779.5181    139.00208    -97720.05    7526.6683   -90193.381    301.20974    3330.3163    94234.806   -119310.17   -85616.468    53.721281 
  595000   -1496.3684    3233.0067    15001.247    4660.4282    152.20338   -97728.269    7516.4258   -90211.843    300.79985    1495.0364    94078.136   -119278.79   -88160.604    53.584928 
  596000   -1541.5175    3142.8329    14965.131    4727.4561    160.12595   -97805.087    7438.3406   -90366.746    297.67495    1469.6055     95018.94   -119259.12   -88330.235    53.392007 
  597000   -1468.8239    3189.1685    15019.396    4742.4889    140.68774   -97674.429    7467.6729   -90206.756     298.8488    1832.9937     94320.23   -119297.35   -87685.356    53.775234 
  598000   -1481.1458    3263.3188    14913.965    4680.2698    142.67448   -97786.432    7544.2877   -90242.144    301.91485    2647.0093    93994.057   -119305.51   -86613.605    53.493814 
  599000   -1490.6266    3175.8764    15057.636    4805.6866    151.69387   -97616.559    7679.2713   -89937.288    307.31676    2157.7941    93777.032   -119316.83   -86986.199    53.469857 
  600000   -1571.1677    3179.9885    14943.526     4809.351    150.17761   -97786.545    7465.1007   -90321.445    298.74586     787.8804    94766.643   -119298.42   -89232.535    53.544201 
  601000   -1447.5301    3153.4723    14919.471    4668.1582    147.18576    -97828.54    7452.6517   -90375.888    298.24767    1808.8899    94938.002    -119269.3   -87871.347    53.480303 
Loop time of 9273.33 on 56 procs for 500000 steps with 8384 atoms

Performance: 4.659 ns/day, 5.152 hours/ns, 53.918 timesteps/s
97.9% CPU use with 56 MPI tasks x no OpenMP threads

MPI task timing breakdown:
Section |  min time  |  avg time  |  max time  |%varavg| %total
---------------------------------------------------------------
Pair    | 5788.1     | 6704.4     | 7445.6     | 397.3 | 72.30
Bond    | 171.54     | 210.3      | 254.35     | 127.3 |  2.27
Kspace  | 863.12     | 1639.4     | 2566.9     | 824.1 | 17.68
Neigh   | 77.981     | 78.183     | 78.355     |   1.5 |  0.84
Comm    | 100.3      | 111.09     | 135.94     |  97.2 |  1.20
Output  | 0.035846   | 0.036222   | 0.045243   |   0.6 |  0.00
Modify  | 434.34     | 507.88     | 531.72     | 121.7 |  5.48
Other   |            | 22         |            |       |  0.24

Nlocal:        149.714 ave         174 max         122 min
Histogram: 1 1 3 4 12 17 9 7 1 1
Nghost:        6145.73 ave        6206 max        6087 min
Histogram: 4 7 3 4 13 3 6 8 5 3
Neighs:        75944.2 ave       85967 max       59477 min
Histogram: 1 0 2 1 11 9 13 11 6 2

Total # of neighbors = 4252874
Ave neighs/atom = 507.26073
Ave special neighs/atom = 6.1984733
Neighbor list builds = 17598
Dangerous builds = 0
write_data      data_2_200MPa.*
System init for write_data ...
PPPM initialization ...
  using 12-bit tables for long-range coulomb (../kspace.cpp:340)
  G vector (1/distance) = 0.27687088
  grid = 45 48 60
  stencil order = 5
  estimated absolute RMS force accuracy = 0.00020292776
  estimated relative force accuracy = 6.1111091e-07
  using double precision FFTW3
  3d grid and FFT values/proc = 9690 4320
WARNING: Not all mixed pair coeffs generated from mixing. Use write_data with 'pair ij' option to store all pair coeffs. (../write_data.cpp:312)
unfix 1

fix             1 all npt temp  ${TEMP} ${TEMP} 100  tri  1000 1000 1000
fix             1 all npt temp  301 ${TEMP} 100  tri  1000 1000 1000
fix             1 all npt temp  301 301 100  tri  1000 1000 1000
run		500000
PPPM initialization ...
  using 12-bit tables for long-range coulomb (../kspace.cpp:340)
  G vector (1/distance) = 0.27687088
  grid = 45 48 60
  stencil order = 5
  estimated absolute RMS force accuracy = 0.00020292776
  estimated relative force accuracy = 6.1111091e-07
  using double precision FFTW3
  3d grid and FFT values/proc = 9690 4320
WARNING: Inconsistent image flags (../domain.cpp:814)
Per MPI rank memory allocation (min/avg/max) = 22.58 | 22.84 | 23.17 Mbytes
Step E_vdwl E_bond E_angle E_dihed E_impro PotEng KinEng TotEng Temp Press Volume v_coulomb Enthalpy S/CPU 
  601000   -1447.5301    3153.4723    14919.471    4668.1582    147.18576   -97828.585    7452.6517   -90375.934    298.24767    1809.5827    94938.002   -119269.34   -87870.434            0 
  602000   -1407.6393    3169.2853    14954.374    4672.9927    137.24665   -97769.017    7511.9447   -90257.072    300.62051    1102.6428    97814.058   -119295.28   -88684.133    50.536375 
  603000   -1338.0973    3211.7655    14874.216    4678.8731    139.85275   -97710.489    7660.5665   -90049.923    306.56821    1833.8877     97410.34    -119277.1   -87444.647    50.344117 
  604000    -1374.331    3241.5019    14898.133    4678.0709    146.75177   -97678.462    7416.3949   -90262.067    296.79671    1602.6454     97985.68   -119268.59   -87971.854    49.956293 
  605000   -1445.5673    3143.9234    14924.253    4683.9709    143.42781   -97835.857    7571.1965    -90264.66    302.99171    710.55095    97207.731   -119285.87    -89257.33    50.361107 
  606000   -1382.6332    3286.1505    14981.471    4692.5903     141.7577   -97570.326    7436.3006   -90134.025    297.59331    737.62547    97330.418   -119289.66   -89086.992    50.066699 
  607000   -1441.1446    3192.8715    15003.944    4708.8097    137.93946   -97673.868    7489.9942   -90183.874    299.74208    851.00476     97404.36   -119276.29   -88974.985    50.673347 
  608000   -1434.7572    3225.1888    14905.286    4664.6602    141.60614   -97764.755     7437.262   -90327.493    297.63179    895.12493    97571.708   -119266.74   -89053.745    50.689311 
  609000   -1497.6517    3190.5668    14961.647    4727.8629    139.20165   -97761.946    7547.0262    -90214.92    302.02444   -51.366977    96579.961   -119283.57   -90287.271    49.313083 
  610000   -1409.2654    3206.9281    14901.146    4654.2233    146.47173   -97771.749    7540.3988    -90231.35    301.75922     1267.316     97892.29   -119271.25   -88422.055     49.53433 
  611000   -1441.3346    3184.7807    15020.101    4700.2079    131.51879    -97718.16    7528.2603     -90189.9    301.27345    507.94272    97595.273   -119313.43   -89466.931    49.382986 
  612000   -1355.9136    3219.1587    14879.588    4638.0685    156.18117   -97729.758     7509.926   -90219.832    300.53973    1106.6005    98022.389   -119266.84   -88637.885    49.534892 
  613000   -1393.7114    3236.7642    14891.874    4727.8131    149.25752    -97702.39    7593.5915   -90108.798    303.88794    598.36549     97905.45   -119314.39   -89254.422    48.953238 
  614000   -1461.5885    3214.9245    14952.167    4655.0121    139.46692   -97695.775    7378.3916   -90317.383    295.27585   -521.11834    97487.106   -119195.76   -91058.283    50.161707 
  615000   -1374.9759    3216.4283    14946.398    4642.9033    141.37614   -97695.753    7569.2413   -90126.511    302.91347    692.48853    97402.181   -119267.88   -89142.824    49.646162 
  616000   -1405.3017    3129.6943    15001.348    4655.6646     151.5077   -97775.649    7626.8979   -90148.751    305.22083    2006.7164    97692.095   -119308.56   -87289.704     49.87032 
  617000    -1452.426    3182.1512    14882.032     4650.577    151.91194   -97869.638    7581.5918   -90288.046    303.40772    1980.0019    97140.032   -119283.88   -87483.002    49.858651 
  618000   -1412.0195    3164.1687    14919.889    4634.9956    149.44025   -97799.174    7566.4911   -90232.683    302.80341     1364.885    97180.102   -119255.65    -88298.27    49.893796 
  619000   -1322.5017    3240.9201    14896.521    4682.1779    153.41486   -97610.296    7594.5949   -90015.701    303.92809    1607.4273    97760.009   -119260.83   -87723.945    49.628341 
  620000   -1336.6665    3225.0521    14879.494    4639.4321    148.55636   -97709.693    7580.8019   -90128.891    303.37611    486.35962    97539.167   -119265.56    -89437.04    49.907474 
  621000   -1424.9903    3225.7025    14924.638    4657.9525    141.41742   -97737.351    7486.1407    -90251.21    299.58786    921.02625    97180.068   -119262.07   -88945.866    50.280816 
  622000   -1422.6631    3270.5505    14890.002    4666.7785     143.1466   -97743.425    7514.6764   -90228.749    300.72984    340.09531    97785.453   -119291.24   -89743.739    50.466655 
  623000   -1376.2893    3292.9257    14895.944    4615.5856     140.0982   -97718.211    7594.3974   -90123.814    303.92019    108.88369    98387.182   -119286.48   -89967.579    50.081447 
  624000   -1410.9678    3155.0673    14852.829    4591.8548    144.86232   -97907.453    7535.6777   -90371.775    301.57029    1014.7657    96905.585    -119241.1   -88937.639    49.212584 
  625000    -1418.072    3188.6473    14950.446    4678.6108    143.58077   -97758.003    7599.8325    -90158.17     304.1377    326.06652    96952.886   -119301.22   -89697.126    49.812159 
  626000   -1401.7041    3240.9006    14852.227    4703.4551    150.76467   -97723.393    7565.8642   -90157.529    302.77832   -173.89255    97574.423   -119269.04   -90404.982    49.951053 
  627000    -1416.951    3231.3769    14918.024    4640.0733    143.30996   -97738.862    7487.2231   -90251.638    299.63118    1472.9922    97716.233    -119254.7    -88152.49    50.056899 
  628000   -1400.8611       3201.7     14934.08    4672.4641    143.09472   -97741.649    7618.5789   -90123.071    304.88791     810.6077    97658.663   -119292.13   -88968.561    49.929188 
  629000   -1410.9583    3246.9355    14915.731     4657.598    136.44596    -97707.51    7560.9503    -90146.56    302.58167    673.42611    97239.398   -119253.26   -89191.549    49.887638 
  630000   -1403.8305    3181.9808    14908.351    4693.5636    136.13669   -97716.665    7516.6441   -90200.021    300.80858    1583.7595    97756.538   -119232.87   -87942.089    49.598175 
  631000   -1383.0192    3279.6535    14865.228    4687.2359    140.95814   -97726.253    7587.7707   -90138.483      303.655    1031.5308    97251.997   -119316.31   -88675.441    50.087669 
  632000   -1436.7651    3179.5873    14939.217    4759.9214    134.96815   -97690.101    7601.8301   -90088.271    304.21764    433.53849    97582.138   -119267.03   -89471.287    50.111739 
  633000   -1318.0381    3156.9373    14891.065    4675.7117    147.84355   -97717.361    7467.1365   -90250.225    298.82733    2648.6822    97233.444   -119270.88   -86494.261    50.304951 
  634000   -1396.6461    3260.3571    14880.726    4732.8411    145.89731     -97629.4    7598.8933   -90030.507    304.10011    1066.6069    97488.093   -119252.58   -88514.043    49.989922 
  635000   -1327.5881    3216.0633    14890.914    4671.4397    137.26894   -97679.827     7511.858   -90167.969    300.61705    1007.1161    97551.478   -119267.92   -88735.157    49.653027 
  636000   -1502.6033    3181.6011    14859.473    4685.6107    151.31353   -97900.434    7522.4887   -90377.945    301.04248   -41.427257    96967.584   -119275.83    -90436.53    49.277083 
  637000   -1467.6541    3219.5966    14917.816    4771.3742    148.69509   -97712.383     7504.331   -90208.052    300.31582   -220.55519     98274.75   -119302.21    -90524.16    50.309357 
  638000   -1400.7252    3162.9426    14850.499    4670.7343    138.60208    -97868.56    7514.3065   -90354.254    300.71503    415.55811    97154.027   -119290.61   -89765.453     50.47325 
  639000   -1394.5149    3237.0699    14896.804    4743.6579    137.23309   -97635.381    7464.4381   -90170.943    298.71935    1934.3554    97357.872   -119255.63    -87424.42    50.418468 
  640000   -1392.9364    3206.9414    14862.494    4652.2002    144.56902   -97786.207    7485.4448   -90300.763    299.56002    767.08965    98261.635   -119259.48   -89201.489    49.993754 
  641000    -1442.337    3210.4566    14905.346    4701.5106    148.87891   -97711.434    7515.3504   -90196.084    300.75681    805.54062     97255.87   -119235.29   -89053.523    49.969993 
  642000   -1356.8356    3271.7694    14916.397    4628.0263    141.39238   -97640.975    7570.3118   -90070.663    302.95631    -31.97915    98129.435   -119241.72   -90116.429    49.316899 
  643000   -1379.0592    3263.4421    14866.097    4728.2756    154.37381   -97647.013    7485.4189   -90161.594    299.55898    2153.6037    97544.252   -119280.14   -87097.914    49.978874 
  644000   -1334.2973     3253.168    14971.932    4618.7171    147.70346   -97585.768    7402.7169   -90183.051    296.24933    318.20509     98262.44   -119242.99   -89727.045    50.464134 
  645000   -1380.7774    3282.1944    14895.276    4647.1144    153.92243   -97699.534    7530.1619   -90169.372    301.34955   -144.18875      98060.6   -119297.26   -90375.579    50.135597 
  646000   -1332.0683    3231.4082    14810.722    4625.7678     156.4523   -97784.619    7686.5435   -90098.075    307.60778    2239.8767    99126.003    -119276.9   -86859.995    50.048632 
  647000   -1340.6623    3189.7994    14874.887    4672.8786    136.38475   -97694.974    7504.4642    -90190.51    300.32115     2167.481    97426.405   -119228.26   -87110.814    50.118631 
  648000   -1361.0125    3289.6148    14946.643    4673.2202    147.19038   -97567.083    7482.5036   -90084.579    299.44231    1192.7106    98246.612   -119262.74   -88375.632    49.980333 
  649000   -1366.0312    3140.3654    14854.802    4708.2085    150.87876   -97738.895    7602.4109   -90136.484    304.24088    1601.6205    98014.105   -119227.12   -87847.071    50.547372 
  650000   -1405.9935    3181.1971    14921.365    4695.4937    144.16372   -97736.853    7537.3323    -90199.52     301.6365   -377.95115    98339.347   -119273.08    -90741.57    50.396588 
  651000   -1311.2873    3164.4808      14889.5    4603.7555    132.28007    -97782.89     7715.907   -90066.983    308.78288    1631.4873    98324.829   -119261.62   -87727.484    50.390724 
  652000   -1410.4457    3131.5737    14907.475    4669.8053    145.70102   -97826.079    7529.9956   -90296.083    301.34289     932.0247    97467.451   -119270.19   -88971.245     50.17419 
  653000    -1341.289    3295.6721    14953.901    4597.3381    151.71712    -97585.15    7661.6252   -89923.525    306.61058     911.0448    98427.472   -119242.49   -88615.753    50.487627 
  654000   -1385.8446    3197.7691    14835.905    4706.9882    149.70572   -97760.883    7562.4528    -90198.43     302.6418    753.74308    98098.843   -119265.41   -89120.072    50.668772 
  655000   -1377.2046    3130.3094    14910.165    4644.1013    139.25046   -97873.584    7509.8767   -90363.708    300.53776    1058.0785    98628.527   -119320.21   -88841.772    50.006628 
  656000   -1361.3163    3137.2401     14879.14    4715.7556    158.09822   -97731.048    7555.7081    -90175.34    302.37188    1791.1712    97372.925   -119259.97   -87631.726    49.964208 
  657000   -1348.2678    3161.6302    14882.736    4676.8117    136.99691   -97762.348    7428.5394   -90333.809    297.28272    644.18802    98150.785   -119272.26     -89411.7    50.110004 
  658000   -1335.8027    3266.5481    14837.178    4723.7998    127.39515   -97682.763     7475.192   -90207.571    299.14971     1454.436    97981.726   -119301.88   -88129.235     49.98089 
  659000   -1308.7993    3205.5202    14852.141     4632.616    139.82662   -97734.541    7685.3135   -90049.228    307.55856    2239.5598    98383.433   -119255.85   -86835.859    48.984718 
  660000   -1348.2493      3251.47    14880.458    4701.6653    136.11248   -97620.874    7365.9351   -90254.939    294.77736    2047.3834    97945.407   -119242.33   -87330.389    50.472876 
  661000   -1311.8705      3132.48    14931.098    4597.5046    154.27269   -97791.494     7533.539   -90257.955     301.4847    706.59262    98426.283   -119294.98   -89243.679    50.959067 
  662000   -1355.5038    3116.1631    14902.139    4681.4547    151.84384   -97780.541     7532.083   -90248.458    301.42643    1222.5619     98245.03   -119276.64   -88496.767    49.682504 
  663000   -1304.8648    3180.2988    14908.249    4638.2163    147.99402   -97765.539    7409.9334   -90355.605    296.53812    1103.8891    98434.611   -119335.43   -88770.898    49.774769 
  664000   -1366.9561    3191.9408    14951.385    4648.7753    136.73192   -97718.427     7553.139   -90165.288    302.26907    1748.7682    97804.797    -119280.3   -87670.876    50.300561 
  665000   -1346.4088    3254.8009    14883.188    4700.3427    136.24951   -97643.882    7380.1804   -90263.702    295.34744   -161.40432    98550.806   -119272.05   -90495.682    49.888614 
  666000   -1371.6469     3255.531    14882.804    4649.3862     143.9611   -97740.017    7451.5597   -90288.457    298.20397    1085.1947    97613.451   -119300.05   -88743.583    50.070268 
  667000    -1357.354    3249.1665    14941.396    4614.8099     140.3865   -97671.615    7467.6078   -90204.007     298.8462    543.40768    98096.691   -119260.02   -89426.586    49.622505 
  668000   -1382.8955    3250.6562    14955.969    4700.9312    153.71563    -97600.76    7590.0589   -90010.701    303.74657    925.02078    98162.121   -119279.14   -88686.447    50.472465 
  669000   -1398.0939    3216.0958    15000.874    4744.4221    133.98224   -97606.136    7472.8481   -90133.288    299.05591    1554.3566    97461.813   -119303.42   -87923.956    50.226277 
  670000   -1366.6625    3181.5814    14912.437    4719.1486    148.25959    -97657.21    7585.3457   -90071.864    303.55795    1453.2285    98539.614   -119251.97   -87983.431    50.728525 
  671000   -1343.5788    3152.5306    14942.964    4719.6164    151.73669   -97668.792    7336.8221    -90331.97    293.61228    559.02722    97541.237   -119292.06   -89536.732    49.631644 
  672000   -1366.2665    3122.4882    14834.193     4729.847    146.18534    -97777.78     7494.638   -90283.142    299.92792    407.49533    97948.444   -119244.23   -89701.044    50.239396 
  673000   -1323.6289     3265.133    14897.081    4685.4027    142.35657   -97616.057    7500.9827   -90115.074    300.18183   -136.80672    98188.022    -119282.4   -90310.977    50.217696 
  674000   -1307.3014    3275.8315     14915.33    4703.2404    145.84423    -97572.62    7558.4788   -90014.141    302.48276    255.18868    98107.982   -119305.56   -89649.016    50.089234 
  675000   -1383.8371    3187.6327    14951.014    4672.2249    141.38739   -97707.387    7585.1037   -90122.283    303.54827    1069.2276    98241.989   -119275.81   -88590.338    49.685106 
  676000   -1398.4699    3132.8198    14855.442    4737.8364    148.99987   -97796.134    7471.2525   -90324.882    298.99205    1679.7566    97855.492   -119272.76   -87927.664    50.048988 
  677000   -1399.0355    3167.2411    14959.507    4678.2659     137.9805   -97738.946    7475.6704   -90263.276    299.16885    710.08192    97967.202   -119282.91   -89248.746    50.232342 
  678000   -1346.2147    3236.9975    14947.956    4622.4932    135.55937   -97682.329    7558.8166   -90123.512    302.49628    1485.6964    98405.254   -119279.12   -87991.331    49.815213 
  679000   -1329.4176    3129.8387    14826.701    4598.9643    154.65771   -97853.514    7490.1457   -90363.369    299.74814    1386.5789    98225.688   -119234.26   -88377.065    49.684405 
  680000   -1345.2636    3232.9172    14924.878     4630.869    129.89262   -97684.069    7529.8737   -90154.196    301.33802    1179.5073     98483.45   -119257.36   -88460.093    49.761347 
  681000   -1340.8551    3138.6978    14937.101    4618.1238    134.45033   -97744.111    7615.3162   -90128.795    304.75734    42.345117    98686.311   -119231.63    -90067.85    49.905666 
  682000   -1371.4413    3222.9937    14922.378    4648.0697    145.67128   -97682.246    7538.0805   -90144.165    301.66644   -90.427248    98382.585   -119249.92   -90273.911    49.040234 
  683000   -1308.9582    3237.6994    15027.823     4625.852    142.55148   -97606.754    7551.6327   -90055.121    302.20879    395.14741    98137.144   -119331.72   -89489.574    49.841395 
  684000   -1325.0091    3193.2463    14911.158    4630.7022    127.90323   -97709.515    7557.2319   -90152.283    302.43286    882.58898    98813.464   -119247.52    -88880.39    49.341529 
  685000   -1319.6454    3172.0867    14882.554    4639.7907    147.09933   -97722.068    7463.9633   -90258.104    298.70035    685.71196     98757.55   -119243.95   -89270.489    49.444024 
  686000   -1329.3665    3219.0664    14851.148    4633.0434    153.55611   -97751.703    7574.2576   -90177.446    303.11422    1240.7317    98237.094   -119279.15   -88399.865    49.564418 
  687000   -1345.3344    3181.0107    14879.867    4640.7459     146.0865   -97758.029    7396.4099   -90361.619    295.99693    210.19643    98645.244    -119260.4   -90059.222    50.475994 
  688000   -1359.8518    3196.7573    14841.243    4715.4391     172.0794   -97698.067    7548.8577   -90149.209    302.09774    1752.9851    97813.275   -119263.73   -87648.565    50.577194 
  689000   -1360.2377    3224.7626    14884.987     4649.839    137.39973   -97753.546    7468.1516   -90285.395    298.86796    895.61717    98409.209    -119290.3   -89000.007    49.938813 
  690000   -1307.6297    3154.3876    14894.541    4634.6411    143.18182   -97710.315    7553.4822   -90156.833    302.28281    1289.6159    98658.894   -119229.44   -88301.284    50.314339 
  691000    -1342.318    3218.4214    14928.207    4661.1533     138.1632   -97725.187    7526.7667    -90198.42    301.21368    1470.6315     97940.02   -119328.81   -88097.837    50.215016 
  692000   -1298.4355    3274.2772     14825.99    4671.3948    152.97563   -97654.386    7436.3992   -90217.987    297.59726    920.15992      99427.7   -119280.59   -88883.708    50.235935 
  693000    -1345.795    3257.2185    14849.938    4696.2192    147.99958    -97704.49    7629.4757   -90075.015    305.32399    690.73722    97978.541   -119310.07   -89088.009     50.51438 
  694000   -1304.9948    3265.6781    14927.022     4659.333    144.32797    -97550.04    7550.8737   -89999.167    302.17841    1107.4311    98617.109   -119241.41   -88406.427    50.589689 
  695000    -1334.805    3243.0264    14883.153    4677.4349    153.07771   -97690.512    7472.0779   -90218.434    299.02509    853.67654    98502.576    -119312.4   -88992.077    50.631614 
  696000   -1305.5372    3262.3925    14967.167    4659.2102    137.42166   -97592.572    7484.1604   -90108.411    299.50861    825.33286    98842.772   -119313.23   -88918.677     50.87298 
  697000   -1320.8777     3227.704    14896.486    4720.4759    147.19485   -97604.346    7404.4819   -90199.864    296.31996    1886.4862     98894.62   -119275.33   -87479.029    49.999145 
  698000   -1297.4732    3216.6747     14924.84    4593.2641    142.12564    -97689.58    7557.1391   -90132.441    302.42915    596.14687    99022.811   -119269.01   -89271.518    50.410869 
  699000   -1343.7326    3199.5769    14964.208    4639.2548     148.5033   -97680.452    7626.7351   -90053.717    305.21431    1704.3364    98337.548   -119288.26   -87609.439    50.020443 
  700000   -1371.9218    3239.6211    14957.677    4686.3061     155.4277   -97639.128    7446.2653   -90192.863    297.99209    217.58716    97988.893   -119306.24   -89881.916     49.80511 
  701000   -1337.4376    3334.2275    14976.365    4686.0388    149.56581     -97482.2     7431.676   -90050.524    297.40824    873.05707    98602.469   -119290.96   -88795.054    50.554052 
  702000   -1387.8086    3261.3249    14898.674    4712.3816    141.55025   -97636.825     7592.381   -90044.444     303.8395    1660.0099    97686.079   -119262.95   -87679.509    49.796745 
  703000    -1282.192    3171.0385    14994.423     4608.852    127.05237   -97656.613    7498.4442   -90158.169    300.08024    1803.1178    98805.579   -119275.79   -87559.915    51.113737 
  704000   -1304.2601    3205.2557    14851.589    4665.3431    148.02566   -97705.589     7662.661   -90042.928    306.65203    961.86184    98903.526   -119271.54   -88655.532    50.346211 
  705000   -1361.3932    3188.5262    14889.483    4646.9443     133.4016     -97764.1    7545.8882   -90218.212     301.9789    1273.2194    98960.075   -119261.06   -88380.662     49.53451 
  706000   -1300.0425    3115.7949    14909.324    4652.5771    127.35047   -97719.109    7435.3014   -90283.807    297.55333    1419.1912    98419.007   -119224.11   -88246.785    50.301904 
  707000   -1335.2215     3241.424     14919.09    4581.0758    149.39809   -97695.553    7647.2739   -90048.279    306.03626    264.00938    99218.795   -119251.32   -89666.256    50.082449 
  708000    -1350.512    3251.6035    14961.241    4640.7969    154.88432   -97627.233    7411.8225    -90215.41    296.61373    689.13483    98614.406   -119285.25   -89224.303    49.158517 
  709000   -1256.9829    3207.1453     14880.26    4628.8579    145.09637   -97640.566     7571.839   -90068.727    303.01742   -13.470585    99277.569   -119244.94   -90088.231    50.116393 
  710000   -1340.5518    3241.5486    14958.086    4620.7711    142.35019    -97632.69    7483.7605    -90148.93    299.49261    1805.3507    98468.267   -119254.89    -87556.34    50.415667 
  711000   -1367.1606    3173.5867    14879.796    4701.2797     138.3138   -97833.924    7525.4071   -90308.517    301.15927    879.24776    98314.561   -119359.74   -89047.837    50.635232 
  712000   -1289.4771    3108.5904     14965.22    4611.3798    147.60806   -97705.454    7599.7091   -90105.744    304.13276    806.28647     99109.31   -119248.77   -88940.332    49.602336 
  713000   -1315.6059    3210.7015    14911.614    4669.1154    146.23209   -97669.302    7541.8301   -90127.472     301.8165   -180.65543    99033.203   -119291.36   -90388.392    51.035592 
  714000   -1377.1294    3185.6389     14925.38    4609.4616    142.90909   -97776.655    7501.1312   -90275.524    300.18777    1440.6328    98517.972   -119262.92   -88205.647    50.870082 
  715000   -1338.9893    3197.5554    14939.044    4627.0239    148.12573   -97713.226     7582.027   -90131.199    303.42514    492.19047    99148.392   -119285.99   -89419.502     50.32641 
  716000    -1376.428    3223.7072    14908.676    4651.9055    136.76891   -97753.215    7542.7322   -90210.483     301.8526   -539.30114    98983.228   -119297.84   -90989.001    50.602434 
  717000   -1294.6371    3258.9997    14899.511    4638.3358    131.14818   -97623.822    7528.0093   -90095.813     301.2634    1297.2315    98683.429   -119257.18   -88228.842    51.199177 
  718000   -1361.7882    3167.7458    14944.781    4658.1352    156.97131   -97707.666    7597.9057    -90109.76    304.06059    1255.5236     98302.79   -119273.51   -88309.785    49.830544 
  719000   -1375.4268    3163.2463    14977.829    4672.5909    135.96308   -97703.347    7478.2183   -90225.129    299.27082    1236.8668    98346.784   -119277.55   -88451.107    50.499784 
  720000    -1305.936    3188.9004    14944.286    4609.7316    127.31487   -97697.551     7492.786   -90204.765     299.8538    1317.5456    98731.171   -119261.85   -88307.641    50.357358 
  721000   -1297.8777     3216.158    14907.113    4627.1711     143.3362   -97688.863    7589.9265   -90098.936    303.74127   -10.475072    98790.908   -119284.76   -90114.028    49.796928 
  722000   -1330.2662    3187.0349    14904.206    4652.0846     137.0938   -97725.271    7581.3349   -90143.936    303.39744    597.52122    98210.951   -119275.42   -89288.102    50.738627 
  723000   -1390.8743      3253.29    14914.324    4640.5106    144.39228   -97715.562    7508.3936   -90207.168     300.4784    95.890239    98892.311    -119277.2   -90068.871    50.711418 
  724000   -1373.0643    3241.4251    14869.921    4629.2487    138.22589   -97788.592    7514.7751   -90273.817    300.73378    281.54639    98527.055   -119294.35   -89869.258    50.635942 
  725000   -1350.7198    3180.9062    14910.484    4699.7518    152.36465   -97669.927    7537.6548   -90132.273    301.64941    1843.7105    97877.847   -119262.71   -87500.472    50.524717 
  726000    -1340.302     3200.667    14957.491     4632.803    143.89051   -97652.649    7477.0899    -90175.56    299.22566     671.7736    98048.655    -119247.2   -89214.964    50.317078 
  727000   -1353.1564    3152.0029    14852.591    4687.9687    139.05694   -97795.963     7509.421   -90286.542    300.51952    2165.2448    98098.746   -119274.43   -87188.792    50.322398 
  728000   -1364.3982    3185.6717    14976.265    4682.8352    149.31685   -97639.116     7488.117   -90150.999    299.66696    1236.2155    98305.672   -119268.81   -88378.652    51.185597 
  729000   -1287.7588    3134.5165    14863.187    4606.0352    149.91992   -97791.532    7429.1451   -90362.387    297.30696    1545.2138    98887.969   -119257.43   -88133.911    50.068446 
  730000   -1370.6025    3177.0521      14925.3     4667.895    158.39334   -97735.018    7559.9798   -90175.038    302.54283    1032.9185    98499.165   -119293.06   -88691.241    50.056834 
  731000   -1253.6533    3248.6704    14878.199    4561.8104    138.51283   -97708.242    7595.0122    -90113.23    303.94479     1795.008    98677.534   -119281.78   -87530.015    49.937486 
  732000   -1329.9521    3223.8809    14877.528    4650.6016    155.15876   -97710.646    7506.6515   -90203.995    300.40869    403.41612     99632.57   -119287.86   -89617.815    49.691678 
  733000   -1322.1074    3209.7454    14975.663    4645.4354    140.55569   -97600.094    7533.3124   -90066.781    301.47563    1720.3943    98644.617   -119249.39   -87591.769    50.095041 
  734000   -1280.4175    3193.1476    14875.917    4617.4348    143.12286   -97688.612    7471.1407   -90217.472    298.98758    1283.2307    99251.242   -119237.82   -88360.024    49.662218 
  735000   -1312.1947    3218.5982     14945.21    4579.0811    136.49146   -97709.268    7574.9975    -90134.27    303.14382    871.49778    99226.934   -119276.45   -88873.106    50.848819 
  736000    -1330.534      3161.67    14827.948    4617.0171     148.3524   -97861.496     7575.618   -90285.878    303.16866    1150.6307     98735.15   -119285.95   -88629.026    50.100768 
  737000   -1333.7379    3193.2345    14874.048    4660.0456    149.34933   -97758.711    7389.6625   -90369.048    295.72691    1419.5674    98520.701   -119301.65   -88329.381    49.957424 
  738000   -1344.1907     3260.312    14940.924    4591.7421    141.18665   -97714.682    7554.2217    -90160.46     302.3124    674.47645    98452.616   -119304.66   -89192.026    49.688984 
  739000   -1307.3962    3247.1287    14825.075    4690.8429    146.65944   -97656.129    7559.4773   -90096.652    302.52272    1394.5163    98493.625   -119258.44   -88093.529    49.852345 
  740000   -1377.2646    3181.5909    14950.482    4649.8676     144.7634   -97751.713    7546.2858   -90205.427    301.99481    444.95825     98710.38   -119301.15    -89564.87    50.747784 
  741000   -1348.0394    3151.6138    14924.331     4666.215     145.1831   -97711.221    7487.9477   -90223.274    299.66018    867.95578    98801.321   -119250.52   -88972.622    50.387597 
  742000    -1322.818     3208.573    14817.417    4680.8879    149.87503   -97728.381    7549.8782   -90178.502    302.13858    1470.1171     97865.55   -119262.32    -88080.25    50.709203 
  743000   -1262.8656    3251.6263    14920.353    4498.5697    151.10607   -97723.425     7566.412   -90157.013    302.80024    1538.8825    98666.669   -119282.21   -87942.635    50.210777 
  744000   -1311.3432    3216.9461    14851.804    4580.4677    149.03396   -97806.669    7408.6607   -90398.008    296.48719     1045.341    98973.095   -119293.58   -88889.141    49.117532 
  745000   -1304.4851    3232.3322    14963.174    4620.9612    140.75339   -97577.148    7480.0502   -90097.097    299.34413    1964.7197    98744.428   -119229.88   -87267.732    50.267215 
  746000   -1327.0914    3246.1961    14947.008    4618.8338    142.25414   -97663.597    7515.5989   -90147.998    300.76675    754.81976     98182.93    -119290.8   -89067.174     49.66373 
  747000    -1315.722    3221.4803    14924.203    4566.3379    143.55825   -97746.431    7409.1213   -90337.309    296.50562    519.52383    98881.916   -119286.29   -89588.108    50.073021 
  748000   -1334.3608    3286.9231    14952.095    4596.6827    134.34154   -97661.893    7648.0473   -90013.846    306.06721    1168.7437     98675.88   -119297.57   -88331.922     49.52337 
  749000   -1358.6173    3251.9899    14934.533    4694.9726    140.61039   -97597.357    7530.8896   -90066.468    301.37867    1863.4495    98111.629   -119260.85   -87400.137    49.623822 
  750000   -1326.8247     3267.268    14878.634    4619.2461    139.28026   -97708.295    7405.2151   -90303.079     296.3493    1888.9735     98834.88    -119285.9   -87580.303    50.170157 
  751000    -1355.165    3261.0877     14926.41     4594.687    146.40953   -97700.546    7590.6551   -90109.891    303.77043    336.68385    98531.106   -119273.98   -89626.084     50.55794 
  752000   -1365.9905    3340.6275    14971.046    4613.7129    142.07882   -97584.147    7566.5222   -90017.625    302.80465    464.03826    98367.937   -119285.62   -89351.918    48.560555 
  753000   -1332.0344    3196.2705    14973.044    4597.1315    136.72243   -97709.118    7516.3537   -90192.764    300.79696     1433.028    98625.427   -119280.25   -88131.567     50.65831 
  754000   -1309.4715    3261.4696    14897.246    4643.0164    136.37494   -97649.782    7628.1315   -90021.651    305.27019     308.0761    98982.667   -119278.42   -89576.924    50.152386 
  755000     -1300.64    3231.3809    14859.268    4665.0538    131.34369   -97694.259    7535.3742   -90158.885    301.55814    708.58731    98881.464   -119280.67   -89137.042    50.062786 
  756000   -1331.9352    3277.0828    14912.008    4625.8666    140.27624   -97664.352    7513.3377   -90151.014    300.67626    1190.1936    98522.539   -119287.65   -88440.884    49.945113 
  757000   -1267.6248    3295.1957    14895.443    4647.3253    144.09986   -97568.426    7503.9127   -90064.513    300.29908    2022.3952    98569.674   -119282.86   -87157.244    48.369999 
  758000   -1371.0415    3217.8895    14929.028    4708.8658    131.21877   -97710.127    7642.5613   -90067.565    305.84766    2152.6666    98212.604   -119326.09   -86984.236    49.333699 
  759000   -1318.2657    3239.3638    14929.863    4637.5045    157.47976    -97594.98    7496.4199    -90098.56    299.99923    1315.5502     98442.33   -119240.93   -88209.851    49.193722 
  760000   -1352.0469    3222.5201     14902.51    4625.2045    143.09675   -97752.784    7696.6521   -90056.132    308.01232    1026.0573    98455.161   -119294.07   -88582.849    49.781791 
  761000   -1326.7299    3197.2662    14927.696    4630.2678    141.06549   -97729.342    7549.4357   -90179.906    302.12087    915.45099    97880.485   -119298.91   -88873.112    49.535258 
  762000    -1321.539    3270.3957        14882    4655.7348    133.08156   -97648.512    7571.6738   -90076.838    303.01081    1762.1426    98248.702   -119268.19   -87551.941    49.036417 
  763000   -1394.9178    3166.7171    14937.262    4723.1665    141.74376   -97688.018    7516.5199   -90171.498    300.80361    1900.5181     97824.26   -119261.99   -87460.093     49.67189 
  764000   -1397.4527    3102.6226    14982.538    4693.1569    141.11732     -97765.3    7516.9432   -90248.357    300.82055      456.117    98122.934   -119287.28   -89595.643      49.8222 
  765000   -1325.6421    3302.1172    14888.957     4665.716    128.45172   -97636.284    7665.3356   -89970.948    306.75907    715.17631    98192.048   -119295.88   -88946.794    50.051613 
  766000   -1323.9291    3128.0165    14900.883    4598.7993    152.91757   -97829.941    7608.9308    -90221.01     304.5018    1688.1582    98256.279   -119286.63   -87801.935    49.169848 
  767000   -1356.7603    3209.8737    14893.056    4638.6646    148.91818   -97751.923    7575.7282   -90176.195    303.17307     506.1768    98775.882   -119285.68   -89447.025    49.356234 
  768000   -1334.6487    3214.2984    14963.954    4612.2355     147.0181   -97682.059     7514.812   -90167.247    300.73526    1158.6224    97875.653   -119284.92   -88513.411    49.368004 
  769000   -1339.6305    3218.2221    14927.554    4597.0509    143.64327   -97695.337    7504.9299   -90190.407    300.33979    1159.2185    98945.064   -119242.18   -88517.641    50.233096 
  770000   -1349.3644    3204.7051    14885.449    4618.6696    142.95404    -97757.49     7417.946   -90339.544    296.85878    873.40317    98395.029    -119259.9   -89086.219     50.55695 
  771000   -1315.2743    3177.2185    14928.589    4641.7313    141.54136   -97672.445    7591.7223   -90080.723    303.81314    846.95023    98114.657   -119246.25    -88868.82    50.083592 
  772000   -1281.5175    3196.5215    14877.799    4570.8576     141.2749   -97769.565    7535.4794   -90234.085    301.56235    1049.6637    98830.902    -119274.5   -88721.155    49.152083 
  773000   -1374.8268    3237.2035    14949.498     4666.506    148.97111   -97662.878    7587.2736   -90075.604     303.6351    1125.7414    97832.206   -119290.23   -88469.416    50.321279 
  774000   -1363.6196    3143.0424    14940.595    4638.8525    138.97168   -97764.636    7353.3486   -90411.287    294.27366    669.14323     97763.42   -119262.48   -89457.236    50.083264 
  775000    -1235.939    3180.2294    14936.026    4606.0929    134.77978   -97605.439     7456.168   -90149.271    298.38839    965.08391    99162.381   -119226.63   -88753.585    49.758066 
  776000   -1330.2148    3196.1866    14823.831     4665.164    138.08685   -97759.104    7507.5018   -90251.603    300.44272    1159.7797    98060.525   -119252.16   -88592.988     50.37891 
  777000   -1279.8939    3243.4783    14924.684    4635.0626    129.06169   -97607.902    7453.6674   -90154.235    298.28832    1231.8306    98526.818   -119260.29   -88384.202    50.406859 
  778000   -1304.3149    3212.3138    14905.487    4597.2561    157.98087   -97690.299    7567.0957   -90123.203     302.8276    1579.8897    99054.277   -119259.02   -87840.887    49.278193 
  779000   -1321.5091    3246.3166    15041.166     4591.985    147.62516   -97567.816    7518.0892   -90049.726    300.86641   -280.25294     98837.12    -119273.4   -90453.694    49.427061 
  780000   -1306.0143    3186.7358    14816.215    4645.2226    135.54204   -97758.816    7560.5211   -90198.295    302.56449    874.59819    98351.189   -119236.52   -88943.814    49.476852 
  781000   -1302.6678    3194.4954    14876.314    4600.2967    149.15879    -97710.33    7584.2854   -90126.044    303.51552    1394.2967    98379.086   -119227.93   -88125.566    50.028293 
  782000    -1281.688    3177.5979    14932.399    4599.9512    150.06108   -97716.179    7536.2041   -90179.975    301.59135    1381.1747    98497.664    -119294.5   -88195.935    49.637483 
  783000   -1333.6124     3208.091    14962.332    4588.7512    137.01552   -97718.737    7571.5084   -90147.229    303.00419    1524.8856    98725.024   -119281.31   -87951.693    48.962463 
  784000   -1259.7471    3182.1042    14973.054    4612.7341    144.91857   -97603.359    7554.9933   -90048.366    302.34328    1411.1913    98976.615   -119256.42    -88011.35    49.440155 
  785000   -1386.0182    3293.7215    14871.041    4663.3725     134.8406   -97663.014    7510.6512   -90152.363    300.56875    622.14706    98484.835   -119239.97   -89258.773    49.967955 
  786000   -1365.7388    3199.2085    14957.952    4676.1527    129.58225   -97636.135    7446.3266   -90189.808    297.99455    2953.8873    98002.277   -119233.29   -85967.927    49.846202 
  787000   -1321.7714    3222.5271    14927.116    4649.9565    137.74957   -97658.828    7523.6844   -90135.143    301.09033    489.65418    99116.935    -119274.4   -89427.339    48.846433 
  788000   -1276.7449    3278.6967    14869.007    4572.3303    137.10016   -97654.536    7587.6877   -90066.849    303.65167    435.34799    99469.786   -119234.93   -89435.305    49.655618 
  789000   -1294.6315    3148.7165     14849.89    4626.2263    141.64939   -97752.095    7514.3129   -90237.782    300.71529    2187.6067    98744.153   -119223.95   -87087.449    49.482436 
  790000   -1257.1049    3257.1188    14872.195    4641.4288    146.96572   -97603.702     7505.837   -90097.865    300.37609    322.49262    99209.108   -119264.31   -89631.262    49.701156 
  791000   -1255.1236    3140.1607    14875.229    4594.2923    146.21517   -97720.364    7487.2409   -90233.123    299.63189     1453.967    98804.246   -119221.14   -88138.017    50.057266 
  792000   -1220.4486    3173.0401    15013.938     4560.359    155.25072   -97575.459    7555.1037   -90020.355     302.3477    855.30784     99776.01    -119257.6   -88775.771    48.912413 
  793000   -1260.7297    3159.9205    14937.758    4564.9079    138.60564   -97720.423     7559.337   -90161.086    302.51711    1527.2082    99306.578   -119260.88   -87949.254    49.884776 
  794000   -1281.7327    3193.6943    14884.022    4663.9422     144.4925   -97628.135    7464.8459   -90163.289    298.73567    1844.9998    98707.209   -119232.55   -87507.332    49.530665 
  795000   -1381.1447      3276.18    14917.351    4645.1224    147.95681   -97629.747    7412.5627   -90217.184    296.64335    658.10939    98700.788   -119235.21   -89269.869    48.914782 
  796000   -1358.9214     3127.735    14907.625    4627.3459     143.7719   -97778.427    7607.5066    -90170.92    304.44481    1783.1999    98860.494   -119225.98    -87599.94    48.898462 
  797000     -1287.96    3274.8098    14951.685    4661.3345    153.35167   -97534.027    7469.1099   -90064.917    298.90631    806.00133    99048.061   -119287.25   -88900.637    49.838573 
  798000   -1305.7509    3215.4787    14929.404    4619.7845    133.34077   -97696.063    7637.0903   -90058.972    305.62872    1890.2001    98723.025   -119288.32   -87337.511    50.221838 
  799000   -1256.6614    3161.0116    14854.029    4636.2508    134.63771   -97748.267    7529.2364    -90219.03    301.31251    985.31403    99733.942   -119277.53   -88785.874    50.193223 
  800000   -1278.1654    3189.1472    14980.288    4597.1385    132.25418   -97643.302    7571.5578   -90071.744    303.00617    1476.2004    99035.226   -119263.96   -87939.628    49.664258 
  801000   -1297.7534    3159.2149    14820.292    4646.9151    152.15959   -97769.543    7529.6006   -90239.943    301.32708    824.66247    99157.646   -119250.37   -89047.388    49.726346 
  802000   -1295.4835    3188.3548    14899.683    4578.8559    142.12226   -97744.061    7598.8042   -90145.257    304.09654    1.3381786    98626.788   -119257.59   -90143.332    49.639062 
  803000   -1308.0873    3164.7169      14929.3    4653.4528    140.62246   -97693.251    7492.1649   -90201.086    299.82895    1108.8163    98871.003   -119273.26   -88602.248    48.444538 
  804000   -1281.4876    3252.1877    14875.669    4612.7567    163.51192   -97618.704    7556.7091   -90061.995    302.41194    1244.3326    99197.193   -119241.34   -88261.832    49.325776 
  805000   -1274.1471    3227.8737    14715.456    4661.6558    154.80807   -97791.617     7571.938   -90219.679    303.02139    1201.4594    99450.027   -119277.26   -88477.111    48.984961 
  806000   -1346.6526    3229.4222    14879.112    4635.8321    145.54123   -97696.301    7692.1808    -90004.12    307.83338    980.51939    99313.514   -119239.56    -88583.95     49.96686 
  807000    -1335.784    3221.2076    14778.686    4691.2933    152.93081   -97740.528    7545.0126   -90195.515    301.94386    1573.3421    98557.226   -119248.86   -87934.062    49.013866 
  808000   -1279.6875    3192.4489    14920.985    4665.8005    137.95211     -97662.2    7386.1135   -90276.086    295.58487    1884.7056     98692.79    -119299.7   -87563.367    49.328946 
  809000   -1212.5414    3181.2762    14900.273    4610.3426    147.77614   -97683.016    7438.5703   -90244.446    297.68414    1235.9329    99245.528   -119310.14   -88455.564    49.195542 
  810000   -1238.9065    3239.2755     14881.27    4671.1353    132.34071   -97564.508    7530.6298   -90033.878    301.36827    1803.2016    99183.961   -119249.62   -87425.554    50.213079 
  811000   -1259.9258    3067.6614    14840.463    4617.5747    141.98515   -97824.629    7450.3787    -90374.25    298.15671    2064.8414    99162.022   -119232.39   -87388.125    50.014227 
  812000   -1287.7622     3178.559    14904.159    4667.6941    147.42701   -97672.519    7585.9014   -90086.618    303.58019    1997.0663    98568.467    -119282.6   -87215.795    48.680225 
  813000   -1307.9637    3172.0025    14889.674    4668.3104    152.39046   -97696.082    7469.7295   -90226.352     298.9311    787.69815    98257.694    -119270.5   -89097.591    49.222162 
  814000    -1267.254     3291.428    14850.988      4625.44    157.14586   -97614.755    7621.6516   -89993.103    305.01088    2079.8719    99138.068    -119272.5   -86985.968    49.507323 
  815000   -1291.5428    3222.5049    14912.164    4613.5297    128.52134   -97656.137     7423.427    -90232.71    297.07812    940.82049    99599.051   -119241.31   -88866.121    48.912977 
  816000    -1268.837    3239.8389    14923.293    4614.8245    125.72257   -97613.128    7621.0287     -89992.1    304.98595     1037.312    98866.028   -119247.97   -88496.441    50.488555 
  817000   -1261.8722    3260.9668    14801.841    4622.5769    144.33069   -97735.886    7556.4265    -90179.46    302.40063    807.75984    99763.596   -119303.73    -89004.21    49.584873 
  818000   -1336.8744    3297.1044    14869.854    4645.9412    155.10917   -97599.904    7592.7821   -90007.122    303.85555   -1123.6685    99022.822   -119231.04   -91629.864    50.245419 
  819000   -1306.2726    3219.6029    14880.759    4651.5838    150.99864   -97672.006     7556.149   -90115.857    302.38953    266.68371    98972.615   -119268.68   -89730.922    50.279532 
  820000   -1278.7264    3208.2624    14812.622    4684.8492    143.66951   -97681.623    7474.5196   -90207.103     299.1228    1365.1221    98890.265    -119252.3   -88238.306    49.940962 
  821000    -1286.487    3232.4211    14865.007    4642.5408      146.443   -97698.972    7567.9156   -90131.057    302.86041    562.96087    99403.901    -119298.9    -89314.93    50.022214 
  822000   -1348.0125    3210.8396     14892.09    4648.3412    143.36698   -97711.375    7555.7652    -90155.61    302.37417    684.96872     99077.66      -119258   -89165.867    49.595206 
  823000   -1275.6736    3184.2213    14837.471    4654.4771    125.83613   -97717.788    7474.3145   -90243.473    299.11459    492.24945    98720.373   -119244.12   -89534.764    50.379415 
  824000    -1292.693    3173.2408    14946.866    4598.4527    141.95706   -97684.498    7556.9862   -90127.511    302.42303    596.78185    98985.894   -119252.32   -89265.993    50.367542 
  825000   -1282.0486    3175.2908    14855.223    4631.6596    137.85953    -97739.35    7475.2727   -90264.077    299.15294    1281.4854    98521.097   -119257.33   -88422.802    50.695926 
  826000   -1222.7387    3175.2871    14921.677    4620.6692    152.40584   -97598.777    7610.3944   -89988.382    304.56037    1490.4596    98754.062   -119246.08   -87841.782    50.763879 
  827000   -1309.2077    3247.1264    14943.926    4633.5556     136.7095   -97606.623    7513.5304   -90093.092    300.68397    857.68975    99101.693   -119258.73   -88853.476    49.892245 
  828000    -1345.987    3248.7046    14956.622     4620.285    147.98346   -97581.732    7429.9095   -90151.823    297.33755    838.59336    98653.703   -119209.34   -88945.286    49.557133 
  829000    -1313.831    3203.3423    14801.813    4636.2128    137.04408   -97820.422    7569.8099   -90250.612    302.93622    457.81121    98949.787      -119285   -89589.954    50.507395 
  830000   -1264.1681    3196.3858    14857.389    4692.0774    135.38579   -97607.147    7515.9795   -90091.168    300.78199    1339.6517     98860.45   -119224.22   -88159.687    50.008316 
  831000   -1311.5985    3234.0869    14799.863    4718.4329     155.9753   -97653.271    7422.7524   -90230.519    297.05113    1628.2213    99015.029   -119250.03   -87879.314      48.9333 
  832000   -1311.9981    3226.8742     14906.55    4652.1653    136.73286   -97670.559    7606.1898   -90064.369    304.39211    1277.0188    98760.861   -119280.88   -88225.046    49.028623 
  833000   -1270.9846    3189.1761    14934.413     4596.474    151.68089   -97652.821    7560.9796   -90091.842    302.58284    1510.0806     99612.83   -119253.58   -87898.071    48.394711 
  834000    -1293.237    3218.2202    14916.442    4639.3084    133.77549   -97636.026     7450.792   -90185.234    298.17325    1541.7193    98322.473   -119250.54   -87974.513    48.240172 
  835000   -1266.7841    3253.6493    14879.751    4592.2636    143.20611    -97659.37    7361.8484   -90297.522    294.61381    591.69033    99038.189   -119261.46   -89442.902    49.507215 
  836000   -1272.5694    3229.4781    14914.289    4553.0032    159.58713    -97657.91    7491.2121   -90166.698    299.79082    431.70129    99328.253    -119241.7   -89541.335    48.498395 
  837000   -1332.7715    3241.3013    14847.573    4654.2934    147.19275   -97708.675    7591.8077   -90116.867    303.81655    1814.7115    98534.202   -119266.26    -87509.09    48.806848 
  838000   -1303.1925     3180.554     14950.34    4638.5999    129.53545   -97692.791    7533.4043   -90159.387    301.47931     1219.883    98380.906   -119288.63   -88409.117     48.80885 
  839000   -1299.3283     3192.102    14938.711    4644.8983     126.3292   -97654.949    7476.8715   -90178.077    299.21692    776.60208    99053.766   -119257.66     -89056.2    47.938498 
  840000   -1321.1937    3200.0209    14953.866    4694.0168     141.1945   -97610.694    7453.4053   -90157.288    298.27782    1307.6084    98400.193    -119278.6   -88280.784    48.718846 
  841000   -1373.5277    3222.0351    14887.266    4694.3117    150.51494   -97676.986    7565.0579   -90111.928    302.74605   -147.98247    98529.957   -119257.59   -90324.573    49.388159 
  842000   -1376.5195    3255.9453    14945.492    4629.9678    142.79675   -97687.341    7527.1129   -90160.228    301.22753    1146.3971    98546.625   -119285.02   -88512.624    48.645936 
  843000   -1304.7311    3214.3048    14838.546    4680.5871    154.66555   -97647.478    7425.1884    -90222.29    297.14862    850.76666     98389.15   -119230.85   -89001.521     49.28408 
  844000   -1307.4674    3197.6735     14927.02    4665.3446    128.75462    -97668.96    7526.6996    -90142.26    301.21099   -47.960803    99138.159   -119280.28   -90211.603    50.327456 
  845000    -1322.132    3092.6467    14932.924    4662.4668    143.29637   -97731.229    7374.5898   -90356.639    295.12371    1532.9011    98696.452   -119240.43   -88150.202    50.169784 
  846000    -1359.591    3203.1908    14915.795    4678.0443    134.38405   -97651.777    7561.9871    -90089.79    302.62316    540.09438    98164.223    -119223.6   -89316.578    49.186565 
  847000   -1281.0012     3213.044    14863.488    4632.5022    142.20439   -97717.715    7465.2082   -90252.507    298.75017    793.59194     98427.78   -119287.95   -89113.331    50.499386 
  848000   -1369.4792    3241.5467    14942.207    4709.9848    140.72223   -97613.883    7476.6522    -90137.23    299.20814    1851.0951     97430.83   -119278.86   -87506.956    50.408709 
  849000   -1339.6069    3211.9349    14954.932    4624.8392    137.07728   -97673.448    7405.5894   -90267.859    296.36428     477.1695    98912.015   -119262.63   -89579.527    49.437315 
  850000   -1291.5767    3182.8632    14929.137    4685.7813    142.79678   -97635.161    7605.5217   -90029.639    304.36537     1857.428    99209.662   -119284.16    -87342.18    50.918563 
  851000   -1290.3505    3213.5146     14870.35    4654.5942     141.5001   -97702.077    7519.6523   -90182.424    300.92897    1367.7351    98980.277   -119291.69   -88208.063    50.448212 
  852000   -1277.7166    3264.2992    14917.183    4694.3824    136.95961   -97557.827    7352.1485   -90205.679    294.22563    1646.8977    98379.317   -119292.94   -87842.774    49.466991 
  853000   -1279.1375    3206.6892    14926.028     4627.002    142.13718   -97652.727    7555.1747   -90097.552    302.35054    1328.0268    99683.112   -119275.45   -88166.899    50.540638 
  854000   -1326.7809    3181.8877    14961.306    4649.1188    136.97599    -97672.68    7567.1204   -90105.559    302.82859    432.15771    98438.548   -119275.19   -89485.143    50.699848 
  855000   -1343.0564    3284.7423    14868.355    4671.0387    130.50064   -97642.575     7545.466   -90097.109    301.96201   -32.361618    98761.754   -119254.16   -90143.721    50.304761 
  856000   -1388.5662    3152.2725    14949.289    4741.1724    150.85607   -97654.055    7473.6996   -90180.356    299.08999    1188.4069    97734.599   -119259.08   -88486.449    50.276114 
  857000   -1273.2649    3111.4062    14940.809    4666.8416    139.53905    -97656.19    7468.9439   -90187.247    298.89967    658.94212    99487.192   -119241.52   -89231.175    51.041835 
  858000   -1324.4959    3183.6121    14883.736    4644.6877    153.85793   -97701.542    7581.1119    -90120.43    303.38852    1680.9146     98429.17   -119242.94   -87707.497    50.186805 
  859000   -1275.5402    3237.5099    14923.131    4693.2168    145.85085   -97529.899    7476.3125   -90053.587    299.19455    916.70619     98978.83   -119254.07   -88730.317    51.136959 
  860000   -1236.9873    3161.8751    14870.386    4650.3014    152.12986   -97683.538    7603.6298   -90079.908    304.28966    926.25314    98946.887   -119281.24   -88743.289    50.041069 
  861000   -1272.0487    3171.2628    14881.266    4605.2813    142.17882   -97698.402    7512.4495   -90185.952    300.64071    1889.5607    99070.751   -119226.34   -87455.829    50.413217 
  862000   -1333.4877    3272.4434    14897.565    4684.2687    132.26396   -97648.195    7510.1127   -90138.082     300.5472    2237.9784    97232.379   -119301.25   -86964.552    49.128748 
  863000   -1304.1144    3219.1939    14867.965    4713.4761    141.03972   -97690.238     7625.726   -90064.512    305.17393    1454.9308    98786.481    -119327.8   -87968.394    49.673333 
  864000   -1230.7317    3236.1512    14849.901    4628.2387    142.10766    -97636.85    7413.2515   -90223.599    296.67091    416.21642    99801.671   -119262.52   -89617.794     50.72318 
  865000   -1274.8956    3211.8868    14868.374    4713.5273    149.96688   -97576.332    7456.8798   -90119.452    298.41687    2120.7915    99132.675   -119245.19   -87053.321    49.779601 
  866000   -1310.3151    3211.5719    14867.521    4665.7289    154.46894   -97687.261     7567.747   -90119.514    302.85367     1733.959    99383.258   -119276.24   -87606.309    49.707178 
  867000   -1201.6022     3237.493    14890.275    4606.2721     150.2821    -97605.84    7556.9877   -90048.852    302.42309    985.36531    99267.712   -119288.56   -88622.321    50.489062 
  868000   -1255.2428    3236.2794    14920.698    4613.4407    142.52636   -97620.764    7517.6237    -90103.14    300.84778   -274.74925    99754.723   -119278.47   -90502.851    49.610348 
  869000   -1284.9006    3166.3243    14899.818     4607.468    142.31086   -97753.381    7525.2693   -90228.112    301.15375    596.21918    99779.838    -119284.4   -89360.501     49.16315 
  870000   -1218.8466    3122.3507    14907.817    4640.9617    152.61134   -97650.621    7432.5353   -90218.086    297.44263    1354.9305    99758.075   -119255.52   -88246.839    50.419907 
  871000   -1332.5812    3173.4284    14923.072    4682.5535     146.1375   -97630.115    7472.3929   -90157.722    299.03769    652.04811    98912.097   -119222.73   -89217.123    50.448072 
  872000   -1290.0324    3149.9256    14829.224    4638.6951    136.90757   -97805.322     7519.147   -90286.175    300.90874    736.08213    99373.373   -119270.04   -89219.402    50.122479 
  873000   -1270.2914    3169.4609    14930.425    4617.3227      126.934   -97671.948     7565.226   -90106.722    302.75278    859.40548    99540.235    -119245.8    -88859.13     49.65156 
  874000    -1314.617    3209.0106    14871.301    4619.8668     138.1315   -97730.609    7518.1033   -90212.506    300.86698    782.60509    98985.045    -119254.3   -89082.741    50.141942 
  875000    -1222.035    3198.2571    14875.915    4647.1121    142.58664   -97639.259    7598.4529   -90040.806    304.08249    1758.2264    99350.912    -119281.1   -87493.257    50.711842 
  876000   -1265.1805     3151.801    14861.398    4642.1243    139.17114   -97665.398     7399.719   -90265.679    296.12935    583.19539    99214.772   -119194.71   -89421.827    50.501656 
  877000   -1267.7294    3169.0587    14893.231    4579.8669    150.08956   -97683.222    7558.3017    -90124.92    302.47567    1009.9768    98814.515   -119207.74   -88669.434    49.780986 
  878000   -1321.6423     3187.818    14870.963    4681.0613    150.76691   -97684.081    7448.6983   -90235.383    298.08946    1264.1429    98841.135   -119253.05   -88413.125    49.330941 
  879000   -1350.7969    3194.3736    14809.875    4697.1781    155.93358   -97756.361    7523.9057   -90232.455    301.09918    274.99163    99451.876   -119262.92   -89833.606    50.417777 
  880000   -1328.8358    3254.4041    14912.635    4701.4131    144.87588   -97558.832    7497.6136   -90061.219      300.047    1693.9201    97877.751   -119243.32   -87643.238    50.502566 
  881000   -1275.5917    3132.2473    14904.596     4621.175    131.64969   -97735.499    7454.7564   -90280.743     298.3319    750.93278     99430.28   -119249.58   -89191.824     50.22884 
  882000   -1285.1098    3175.1664    14964.727    4619.3607    150.00893   -97646.871    7548.6204   -90098.251    302.08824    1102.9012    98643.175   -119271.02   -88511.606    50.200193 
  883000   -1316.8773    3241.1815    14877.683    4628.3861    145.97211   -97763.339    7565.6757   -90197.663    302.77078   -296.50344    99304.098   -119339.68   -90627.074     49.43228 
  884000   -1317.2166    3232.5041    14908.921    4673.7662    162.39007   -97584.614    7549.7976   -90034.817    302.13535   -78.484038    99465.472   -119244.98   -90148.666    50.750748 
  885000   -1304.2904    3261.3866    14980.976     4613.616    149.43715   -97623.366    7395.3016   -90228.064    295.95258    1873.4042    98518.664   -119324.49   -87536.369    50.175167 
  886000   -1361.7081    3158.2048    14858.589    4695.2911    146.42919    -97770.83    7471.7285   -90299.101     299.0111     977.1826    98746.017   -119267.64   -88891.852    49.987803 
  887000   -1354.8502    3288.2999     14893.88    4722.9806    140.29416   -97626.412    7524.6214   -90101.791    301.12782    1518.7088    98559.875   -119317.02   -87918.807    50.057529 
  888000   -1327.0914    3241.0143    14825.133    4625.3883    142.39843    -97752.07    7526.2734   -90225.797    301.19394    607.92764    98929.155   -119258.91   -89348.691    50.005711 
  889000   -1288.4345    3125.4095    14920.947    4695.5769    158.98811   -97693.365    7527.9596   -90165.405    301.26141    1014.3056    99114.158   -119305.85   -88699.249    50.181091 
  890000   -1388.0722    3213.2487    14903.644     4602.652    135.64192   -97762.475    7415.9864   -90346.489    296.78036    615.64308    98185.443   -119229.59   -89464.928    50.626585 
  891000   -1373.9313    3160.9199    14979.359     4716.053    130.74507   -97648.989    7398.4172   -90250.572    296.07726    1117.4456    97964.642   -119262.13   -88654.062     50.84398 
  892000   -1297.7407       3215.9    14902.142     4653.343     136.4623   -97672.461    7560.0788   -90112.382    302.54679    1198.4173    99013.604   -119282.57   -88381.853    50.358461 
  893000   -1338.1582    3180.5474     14870.52    4649.9381    145.06475    -97801.44    7492.0299   -90309.411    299.82354    844.71762    98854.302   -119309.35   -89091.591      51.3231 
  894000   -1388.8893    3184.8267    14974.806    4643.7975    146.86046   -97680.244    7456.0039    -90224.24    298.38182    644.97985     97894.42   -119241.64   -89303.409     50.88197 
  895000   -1280.2017     3190.914    15005.516    4628.6228    142.44077   -97546.185    7557.5881   -89988.597    302.44712    780.21996    98834.591   -119233.48   -88863.987    50.515763 
  896000    -1337.952    3220.6688    14870.201    4666.6334    132.70094   -97754.656    7569.7233   -90184.933    302.93276    1083.8207    98566.346   -119306.91   -88626.952    51.146419 
  897000   -1360.4789    3239.9146    14965.575    4693.7236    140.14876   -97573.455    7557.7579   -90015.697    302.45391    809.60535    98839.358   -119252.34   -88848.674    50.868738 
  898000   -1333.9517    3211.9371    15027.792    4658.6469     133.9946   -97618.792    7494.4711   -90124.321    299.92124     616.4791    98076.751   -119317.21   -89242.541     50.03134 
  899000   -1286.4829    3251.8846    14890.144    4631.3401    146.47087   -97682.976     7516.597   -90166.379    300.80669    1396.7509    99087.146   -119316.33   -88147.956     50.61891 
  900000   -1380.7611     3216.026    14916.409    4743.0339    147.45329   -97619.897    7434.4196   -90185.477    297.51804   -124.69885    98352.192   -119262.06   -90364.341    51.074195 
  901000   -1362.6928    3195.7015    14877.478    4657.1744     132.2691   -97770.399    7590.9161   -90179.483    303.78087    1399.9672     98044.88   -119270.33   -88177.692    50.356517 
  902000    -1301.358    3230.7522    14866.922    4629.2573    150.79648   -97693.625    7430.7964   -90262.828    297.37304     1749.638     99171.44      -119270   -87732.303    50.099244 
  903000   -1368.5019    3218.6755    14876.036    4694.2145    139.14274    -97713.77    7542.1275   -90171.642     301.8284    695.61724    98584.815   -119273.34   -89171.513    49.392766 
  904000   -1281.9052    3242.1117    14911.088    4618.1258    136.78307   -97627.702    7433.4936   -90194.209    297.48098   -13.567412    99566.156   -119253.91   -90213.909    49.056371 
  905000   -1325.8526    3125.8303    14985.914    4650.2696    147.93079   -97650.608    7566.8468   -90083.761    302.81764    2166.1722     98013.37    -119234.7   -86987.381    50.066997 
  906000   -1284.5427    3198.6805    14922.527     4611.972    145.81226   -97698.662    7488.8355   -90209.826    299.69571    585.18855    99735.298   -119293.11   -89358.648    50.398133 
  907000   -1334.7171    3176.6188    14968.295    4652.6551    138.24752   -97700.256    7592.1784   -90108.078    303.83139    1651.8405    98109.066   -119301.36   -87744.591    50.485377 
  908000   -1305.2997    3168.2318     14889.56    4586.5625    142.50605   -97745.541    7554.1488   -90191.392    302.30948    678.12214    98892.572    -119227.1   -89213.373    49.963544 
  909000   -1302.8424    3202.6068     14869.04    4637.0225    131.00088   -97725.478       7568.7   -90156.778    302.89181    844.50573     98884.08   -119262.31   -88938.897    50.599528 
  910000   -1335.5764    3171.4173    14917.754    4618.9563    132.57527   -97728.388    7718.6357   -90009.752    308.89208     559.7999    99083.366   -119233.51   -89200.825      50.8948 
  911000   -1317.8173    3256.3903    14848.325    4628.8192     137.6196   -97723.657    7668.7702   -90054.887    306.89651    1401.5149    99007.024   -119276.99   -88031.218    50.451055 
  912000   -1323.8691    3288.1209    14920.265    4600.1649    143.91897   -97650.549    7425.9819   -90224.567    297.18037     111.1184    99517.875   -119279.15   -90063.293    50.273849 
  913000   -1307.2917    3192.3624    14883.779    4639.6742    131.71138    -97758.13     7509.429   -90248.701    300.51984    1599.3465    99084.475   -119298.36   -87937.572     50.42453 
  914000   -1352.1449    3214.0897    14935.629    4606.3939    147.94706   -97699.555    7513.6243   -90185.931    300.68773     1377.241    98856.455   -119251.47   -88200.335    50.388645 
  915000    -1326.621      3230.48    14887.728    4648.7522    150.21091   -97649.659    7392.7383   -90256.921    295.84999    653.17701    98716.206   -119240.21   -89316.559    50.670798 
  916000   -1330.6681    3261.7014    14779.793     4653.945    161.94417   -97738.287    7504.9281   -90233.358    300.33972    816.87718    98865.177      -119265   -89055.546    50.416834 
  917000   -1336.4291    3205.9743    14937.922    4634.1889    162.31347   -97710.261    7461.1148   -90249.146    298.58635    1153.4717    98521.452   -119314.23   -88591.799    49.829652 
  918000   -1323.2961    3210.4739    14852.447    4656.6677    155.16243   -97733.833    7494.0807   -90239.753    299.90562    960.24135    99128.517   -119285.29   -88851.544    50.005236 
  919000    -1304.901    3281.9699    14899.203    4682.6796    142.75461   -97605.276    7535.3505   -90069.925    301.55719    929.22217    98882.631   -119306.98   -88729.893    50.350386 
  920000   -1324.4039    3196.3539    14876.837    4642.0871    159.73902   -97710.258    7517.6201   -90192.637    300.84764     1606.845    98477.001   -119260.87   -87884.909     50.06319 
  921000   -1313.5013    3226.7316    14821.896    4627.4452    138.17747   -97745.917    7356.4906   -90389.427     294.3994    15.007467    98882.006   -119246.67   -90367.784    49.884124 
  922000   -1291.9037    3143.8417    14970.993    4643.6123    135.43984   -97659.884    7410.4406   -90249.444    296.55842    1524.0163    98270.665   -119261.87   -88065.259    49.517583 
  923000   -1327.5591    3146.7443    14938.563    4687.7419    144.68655   -97701.596    7568.5094   -90133.087    302.88418    713.54437    98313.406   -119291.77   -89110.007    49.324564 
  924000   -1378.3168     3209.431    14914.472    4694.5561    172.44261   -97662.141    7488.7205   -90173.421     299.6911    1509.7582    98706.962   -119274.73   -88000.064    50.088193 
  925000   -1340.0981    3179.0361    14864.647    4694.5974    130.84173   -97729.491    7604.8544   -90124.636    304.33867    1218.0946    98702.118   -119258.51   -88371.227    50.265197 
  926000   -1392.9701    3231.9267      14789.3    4694.9912    132.10581   -97831.656    7576.6469    -90255.01    303.20983    376.32189    98381.226   -119287.01   -89715.067    50.251559 
  927000   -1345.7033    3258.3885    14857.975    4670.4547    152.06835   -97681.138    7528.6695   -90152.468    301.28982    525.07463    98486.472   -119274.32   -89398.291    49.939027 
  928000   -1354.7091    3261.2031    14901.492    4639.3758    129.18063   -97723.387    7588.6286   -90134.759    303.68933    723.30972    98184.354   -119299.93   -89099.038    49.084835 
  929000   -1382.9455    3164.6066    14867.195    4696.9764    139.45341   -97802.283    7505.2743   -90297.009    300.35357    641.02021     98358.95   -119287.57   -89377.488    49.663774 
  930000   -1281.9494     3177.599    14883.192    4628.7061     157.5598   -97699.575      7395.46   -90304.115    295.95891    1092.7803    98939.373   -119264.68   -88727.311    49.531756 
  931000   -1366.8483    3270.3877    14930.169    4644.8218    157.02458   -97672.234    7481.2985   -90190.936    299.39408    716.25318    98391.727   -119307.79   -89163.154     50.67194 
  932000    -1391.323    3206.0008    14882.902     4710.594    134.65842   -97730.125     7414.068   -90316.057    296.70359    392.11465    98501.426   -119272.96   -89752.768    48.885097 
  933000   -1333.1152     3178.665    14839.301    4629.1376    130.94727   -97872.051    7389.9217   -90482.129    295.73728    452.25685    98053.573   -119316.99   -89835.397    50.028556 
  934000   -1402.9344    3237.4728    14892.649    4670.0407    147.72557    -97688.35    7475.6991   -90212.651       299.17    91.795093    98134.001    -119233.3   -90081.276    49.399563 
  935000   -1298.8669     3178.074    14871.588    4572.0483    145.43806   -97822.274    7487.5429   -90334.732    299.64398    1371.8212    98864.996   -119290.56   -88356.779    50.186496 
  936000   -1291.7588    3183.6889    14883.408     4586.728    142.76383   -97744.862    7581.8769   -90162.985    303.41913    821.83429    98867.996   -119249.69   -88977.992    49.859459 
  937000   -1301.3033    3138.5927    14827.556     4581.576    136.62861   -97864.799     7479.891   -90384.908    299.33776    1301.1799     98682.92   -119247.85   -88512.264    50.521429 
  938000   -1265.8195    3178.5012    14843.251    4618.9935    134.52622   -97730.896    7436.8832   -90294.012    297.61663    1302.2081    98601.029   -119240.35   -88421.444    50.487614 
  939000   -1343.1049    3145.5701    14896.496    4625.6326    146.82978   -97827.754     7542.103   -90285.651    301.82742    644.22068    98392.014   -119299.18   -89361.229    49.589567 
  940000    -1336.723     3160.706    14816.843    4672.0277    135.64515   -97823.471    7618.6671   -90204.804    304.89144    1365.0674    98375.555   -119271.97   -88246.333    50.375809 
  941000   -1306.6303    3229.7081    14892.497    4651.1061    132.62758   -97672.286     7523.727   -90148.559    301.09203     756.3202    98839.142    -119271.6   -89058.348    50.342779 
  942000   -1311.3001    3187.6202    14957.009    4592.6116    148.97098   -97668.391    7556.7203   -90111.671    302.41239    1192.3306    99226.512    -119243.3   -88386.229    50.207679 
  943000   -1322.4027    3218.9991    14890.495    4609.1613    138.23185   -97772.311    7518.4442   -90253.867    300.88062   -206.95762    98944.816    -119306.8   -90552.508    50.263615 
  944000   -1324.8834    3198.1928    14936.648    4639.4997    146.00208   -97681.186    7580.3847   -90100.802    303.35941    1038.0991    98641.807   -119276.65   -88607.403    49.867457 
  945000   -1310.3308    3336.2692    14828.959    4648.6816    142.29506   -97645.601    7659.4071   -89986.194    306.52181    209.54116    98552.669   -119291.47   -89685.022    49.971794 
  946000   -1257.8596    3169.4574     14910.18    4538.8805    135.87684   -97785.241    7513.1068   -90272.134    300.66702    1281.1274    99049.245   -119281.78   -88421.505    49.246007 
  947000   -1292.5852    3179.6325    14872.782    4634.2373    132.92985   -97734.996    7584.2814   -90150.714    303.51536    591.29365    99199.949   -119261.99   -89295.272    50.394585 
  948000   -1322.5535    3302.6493    14871.215    4584.0875     156.5818   -97643.435    7471.5659   -90171.869     299.0046    447.54841    98650.262   -119235.42   -89527.975    50.215883 
  949000   -1283.4065    3226.6999    14869.087    4565.7829     151.8606   -97736.482    7403.1826   -90333.299    296.26796    877.33475    99592.773   -119266.51   -89059.007    49.780233 
  950000   -1266.8938    3199.6113    14923.238    4573.5914    152.64275   -97686.361     7657.908   -90028.453    306.46182     1820.459     99037.21   -119268.55   -87399.062    48.416139 
  951000   -1317.6853     3199.871    14856.879    4629.7016    148.10433   -97751.628    7499.3285     -90252.3    300.11563    1292.0602    98892.411    -119268.5   -88388.833    49.161284 
  952000   -1349.0879    3232.7711    14900.034    4667.1086    142.22436   -97678.566    7535.3614   -90143.205    301.55763    1183.1863    98912.964   -119271.62   -88436.406    51.095878 
  953000   -1322.3439    3247.6536    14906.131    4657.0241    155.05284   -97588.797    7518.8514   -90069.945    300.89691    777.24939    98146.839   -119232.31   -88957.413     49.92416 
  954000   -1304.5445    3181.4938    14835.387    4625.9816    157.45116   -97764.883     7470.364   -90294.519     298.9565    1114.2161    98941.314   -119260.65   -88686.753    50.014492 
  955000   -1353.8712    3243.5214    14829.089    4661.5137     142.6797   -97753.668    7582.4101   -90171.258    303.44047    400.78159    99172.221    -119276.6   -89591.597    49.908463 
  956000   -1375.1355    3254.6795    14862.886    4623.6008    133.65116   -97806.575    7369.4288   -90437.147    294.91717    273.20027    98625.608   -119306.26   -90044.188    50.637747 
  957000   -1266.9265    3162.9259    14942.645    4598.6076    135.35555   -97669.526    7525.6969    -90143.83    301.17086    937.40731    99654.439   -119242.13   -88781.441    50.560143 
  958000   -1325.2248     3121.731    14884.097    4642.2924    149.72839   -97786.277    7508.6975    -90277.58    300.49056    1345.0729    98816.152    -119258.9   -88339.152    50.802721 
  959000   -1320.7246    3195.0274    14900.805    4625.0393    132.87976    -97765.28    7517.6776   -90247.602    300.84994    374.63144    99020.632   -119298.31   -89706.592    50.026366 
  960000   -1255.0672    3211.3534    14867.716    4616.4785    151.11669   -97695.431    7535.9676   -90159.464    301.58189    619.20129    98834.103   -119287.03   -89266.951    49.620493 
  961000   -1297.5048    3207.2699    14894.797    4608.5508    148.18498   -97722.206    7473.2422   -90248.964    299.07168     247.2232    99705.349    -119283.5   -89889.477    49.973456 
  962000   -1314.7546    3245.1983    14944.911    4649.0005    140.20959   -97630.133    7537.9077   -90092.225    301.65953    1426.4497    98733.339    -119294.7   -88038.245    50.575282 
  963000   -1253.9271    3278.1428    14866.867    4624.1027     130.9659    -97652.23    7493.1365   -90159.094    299.86783    1735.0368    99226.541   -119298.38   -87648.292    49.211736 
  964000   -1303.3678      3170.24    14923.072    4582.2069    140.22756   -97741.274    7530.2593   -90211.015    301.35345    1740.6467    98481.786   -119253.65   -87711.001     50.20573 
  965000   -1361.1005    3092.8258    14919.075    4670.3598    143.11364   -97820.017     7415.954   -90404.063    296.77906    2308.3163    98620.858   -119284.29   -87084.049    50.060962 
  966000   -1306.9307     3190.704    14922.118    4631.7486    143.67209   -97677.313    7521.0995   -90156.213    300.98688     1393.583    99028.829   -119258.62   -88143.553    49.531383 
  967000   -1302.0402    3239.0844    14805.803     4682.282    149.68921   -97678.813    7526.4987   -90152.314    301.20295    164.09898    99173.066   -119253.63   -89914.971    50.081491 
  968000   -1329.7687    3187.1005    14856.867    4700.4947    146.25152   -97690.831    7621.2298   -90069.601      304.994    391.93998    99127.606   -119251.78   -89502.983    50.744688 
  969000   -1333.8067    3229.4139    14898.681    4644.0826    139.81607   -97676.617    7517.8195   -90158.798    300.85562    821.99195    98585.741    -119254.8   -88976.961    49.484529 
  970000   -1293.8647    3189.3381    14840.806    4663.2525    139.54229    -97725.47    7484.4883   -90240.982    299.52174    1239.1787    98363.882   -119264.54   -88463.335    49.802201 
  971000    -1330.642    3154.1723    14866.487    4686.1902    131.38041   -97784.387    7477.6009   -90306.786    299.24611    1058.6248    98431.862   -119291.97   -88787.101    49.646965 
  972000   -1321.2296    3228.1527    14821.194    4674.8617    148.12303   -97724.516    7633.1663    -90091.35    305.47168    -43.90451    99326.668   -119275.62   -90154.949    49.713163 
  973000   -1390.1927     3217.868     14814.26    4711.5661    133.31869   -97795.513    7547.3168   -90248.196    302.03607     1516.334    98401.752   -119282.33   -88072.122    49.375667 
  974000   -1409.4416    3210.9227    14865.056    4715.9582    155.28357   -97756.153    7493.0701   -90263.083    299.86517    1825.3701    98650.722   -119293.93   -87636.887    49.346195 
  975000   -1286.6028    3205.9222    14926.406    4634.2414    137.97152   -97673.164    7652.7192   -90020.445    306.25417    859.09458    98994.204    -119291.1   -88780.145    48.290474 
  976000   -1307.6822    3171.7564    14925.229    4671.0694    148.51754   -97675.699    7466.6409   -90209.058     298.8075    1363.1871    98888.205   -119284.59   -88243.092    49.738111 
  977000   -1348.9266    3225.9946    14929.003    4693.4098    146.75311   -97570.446    7599.6823   -89970.764    304.13169    1068.6106    98862.315   -119216.68   -88430.035    49.418537 
  978000   -1272.5601    3265.8885    14934.231    4619.0254    148.79551   -97571.745    7449.0341   -90122.711     298.1029    633.04093    99195.659   -119267.12   -89206.911    49.117851 
  979000   -1303.3245    3098.2213    14885.851     4666.991     149.5643    -97756.33    7526.2319   -90230.098    301.19227    1387.3026    98807.188   -119253.63   -88230.993    49.063478 
  980000   -1356.6449    3141.2599    14914.812    4617.8422      146.073   -97798.267    7516.5857   -90281.681    300.80624    1143.7529    99067.468   -119261.61    -88629.19    49.117405 
  981000   -1278.2487    3193.1733    14925.421    4576.1182    139.07948   -97672.603    7562.7233   -90109.879    302.65262    1111.2363    98918.297   -119228.15   -88506.786    48.890879 
  982000   -1307.4803    3201.2574    14826.527    4656.0977    152.55689   -97757.592    7562.6989   -90194.893    302.65165    1420.8129    99108.925   -119286.55   -88141.247    50.018024 
  983000   -1345.5572    3196.4001    14838.941    4649.9786    139.49813   -97781.268    7518.1623   -90263.106    300.86934    1083.6151    98987.344   -119260.53   -88698.768     48.92732 
  984000   -1289.0184    3134.4651    14873.411    4629.0188      145.644   -97734.207    7723.6551   -90010.552    309.09295    562.30339    98673.617   -119227.73   -89201.368    48.089951 
  985000   -1244.2025    3298.0983    14869.951    4499.0589    149.37404   -97675.916    7479.7792   -90196.137    299.33328    1438.4693    100103.19    -119248.2   -88096.112    48.612093 
  986000   -1320.4616    3334.4906    14878.702    4616.9528     144.1354   -97626.342    7631.6074   -89994.735     305.4093    758.42201    99069.227   -119280.16   -88898.949    49.477104 
  987000   -1372.1849    3182.0457     14803.17    4687.4374    136.15856   -97841.002    7548.9175   -90292.085    302.10013   -233.48372    98032.487   -119277.63   -90625.897    49.453152 
  988000    -1349.141    3274.2836    14959.017    4656.5518    136.15266   -97626.296    7494.3076   -90131.988    299.91469    314.26693    99402.078   -119303.16   -89676.402    48.589026 
  989000   -1270.0166    3221.1734    14764.588    4638.2198    136.77138   -97788.383      7513.26   -90275.123    300.67315     1814.854    98220.121   -119279.12   -87675.454    49.622098 
  990000   -1292.5909    3133.7094    14898.248    4617.7915    138.13618   -97758.274     7592.891   -90165.383     303.8599    498.67372    99566.817   -119253.57   -89441.269     48.89593 
  991000   -1353.3176    3212.3369     14906.05    4660.3415    146.53298   -97730.339    7568.1115   -90162.227    302.86825    583.14447    99037.069   -119302.28    -89319.96    48.967939 
  992000   -1317.5699    3173.9828    14877.816    4625.1719    133.73294   -97750.129    7552.8778   -90197.251    302.25861    270.42665    98977.444   -119243.26   -89806.894    48.789801 
  993000   -1322.0172    3255.3423    14897.827    4615.4599    151.86067     -97647.3    7613.5805    -90033.72    304.68788   -68.342528    99287.839   -119245.77   -90132.681    48.515981 
  994000   -1245.9928    3172.1288    14927.517    4648.1848    143.65819   -97621.502    7511.5205   -90109.981    300.60354    2497.1034    98627.045      -119267   -86518.212    48.491811 
  995000   -1296.0167    3186.2598    14855.124    4597.8916      143.063   -97754.403    7426.9196   -90327.483    297.21789    652.35142     99123.11   -119240.72   -89384.438    47.272848 
  996000   -1353.8277    3344.2847    14903.972    4638.3562    139.92315   -97581.188    7457.9517   -90123.237    298.45977    189.44409     98938.53    -119253.9   -89849.885    49.292782 
  997000    -1347.677    3134.7897     14879.94    4625.1993    134.62742    -97810.74    7509.4719   -90301.268    300.52156    610.79517    98977.583   -119237.62   -89419.593    49.668549 
  998000   -1337.7757    3195.4337    14935.539    4619.7565    154.42568   -97683.528    7544.1023   -90139.426    301.90743    910.51599    98520.464   -119250.91   -88831.178    49.093325 
  999000    -1323.683    3216.2695    14898.053     4637.151    138.08451   -97688.898    7500.9197   -90187.978    300.17931     1246.019    99037.126   -119254.77   -88388.285    49.113065 
 1000000   -1325.1692    3243.5852    14837.182    4657.9587    140.58352   -97722.288    7401.9767   -90320.311     296.2197    964.47079    98939.617   -119276.43   -88928.645    49.570578 
 1001000   -1333.6607    3263.4487    14834.795    4681.3606    128.31299   -97726.907    7498.5568    -90228.35    300.08474    248.17079     99444.58   -119301.16   -89868.428    49.859083 
 1002000    -1339.828    3257.6486    14852.858    4677.2484    159.43673   -97668.981    7558.7803     -90110.2    302.49483    1178.0519    99041.381   -119276.34   -88408.602     48.42724 
 1003000     -1289.14    3288.6191    14858.582    4650.3676     150.7408    -97643.78    7505.5957   -90138.184    300.36643    602.21292    99090.803   -119302.95   -89267.903    49.059136 
 1004000   -1353.5754    3204.9474    14856.721    4699.6673    139.99633   -97728.604    7610.9805   -90117.624    304.58383    1833.5879    98568.813   -119276.36   -87481.795    48.347628 
 1005000   -1323.3419    3215.5863    14947.436    4638.3134    143.96578   -97677.081    7440.3834   -90236.698     297.7567    1658.5382    98257.209   -119299.04   -87860.045    49.412432 
 1006000   -1284.9519    3194.5977    14918.026    4661.0248     150.2456   -97675.822    7477.8692   -90197.953    299.25685    1469.7145    98302.328   -119314.76   -88090.914    50.092588 
 1007000   -1385.9359    3181.3348    14917.596    4667.7555    141.36402   -97731.285     7584.968   -90146.317    303.54283    230.03256    98319.818    -119253.4   -89816.475    49.158769 
 1008000    -1348.664    3115.4841    14886.019    4692.7914    148.70466    -97758.75     7494.369   -90264.381    299.91715    1349.6004    98259.119   -119253.09   -88330.393    48.862727 
 1009000   -1364.4425    3103.4682    14883.524    4666.2636    153.01377   -97782.513     7459.397   -90323.116    298.51761    414.62507      99064.9   -119224.34   -89724.082    49.350722 
 1010000   -1360.6398    3145.2269     14880.02    4642.1287    149.25105   -97825.947     7572.088   -90253.859    303.02739    1033.7675    98549.931   -119281.93   -88768.077    49.199817 
 1011000   -1337.6096    3229.6509    14965.814    4648.1016    135.44499   -97606.882    7400.5551   -90206.327    296.16282    1615.1798    97907.432   -119248.28   -87900.045    49.159754 
 1012000   -1345.3097     3248.176    14830.692    4671.8649    145.66191   -97686.167    7456.0674     -90230.1    298.38436    1305.4019    98614.856   -119237.25   -88352.675    49.766038 
 1013000   -1270.1993    3229.6586    14922.677    4562.8426    129.42783   -97659.376    7582.9675   -90076.408    303.46278    1069.5717    98872.351   -119233.78   -88534.138    49.715659 
 1014000   -1324.1575    3185.9506    14901.639     4629.432    134.20006   -97734.587      7512.36   -90222.227    300.63713    1917.9537    98165.477   -119261.65   -87476.403     49.30102 
 1015000   -1297.8109    3196.7015    14932.786    4661.8684    144.98288   -97646.324    7511.4589   -90134.865    300.60107     878.4102    98708.578   -119284.85   -88870.338    49.881367 
 1016000   -1395.8017    3333.1405    14930.609    4727.7527    145.17594   -97537.465    7459.1081   -90078.357    298.50605   -115.78231    98657.518   -119278.34   -90244.947    49.645876 
 1017000   -1304.2883    3246.6596    14810.394    4678.1282    145.16564    -97713.84    7380.8424   -90332.998    295.37393    672.80741    98443.379    -119289.9   -89367.051    48.375229 
 1018000   -1406.2123    3185.4493    14924.263    4684.1699    148.03346   -97698.549    7603.5209   -90095.028     304.2853    845.02374    98063.938   -119234.25   -88886.507    48.500185 
 1019000   -1331.3833    3203.2368    14898.569    4596.2448    150.49702   -97741.151    7534.7469   -90206.404    301.53303    1794.7963    98693.418   -119258.32   -87623.078    49.093248 
 1020000   -1352.0701    3278.7485    14889.977    4604.4705    159.70886   -97623.399    7710.3497    -89913.05    308.56049    197.49023    99246.507   -119204.23   -89627.201    48.966573 
 1021000   -1311.4915     3182.486    14986.165    4635.0894    137.92178   -97665.078    7522.6065   -90142.471    301.04719    1040.7144    98486.127   -119295.25   -88647.673    48.316109 
 1022000   -1330.1094    3238.9817    14962.701    4638.0119    155.75161   -97616.805    7411.5703   -90205.235    296.60363     1721.658    98400.387   -119282.14   -87734.537    49.240422 
 1023000   -1314.0152    3217.7884    14856.573    4608.3145     138.6768   -97747.897    7440.0112   -90307.886    297.74181    1253.9604    99108.433   -119255.23   -88495.418    47.945389 
 1024000   -1347.1749    3241.4457    14906.361    4698.7822    135.61692   -97648.111    7558.4225   -90089.689    302.48051    75.816775    99236.348   -119283.14   -89979.962    49.018743 
 1025000   -1338.9963    3239.8554    14840.376    4627.8725    139.82162   -97733.606    7427.1343   -90306.472    297.22649   -292.93196     99025.39   -119242.53   -90729.519    49.272754 
 1026000   -1380.9331     3204.062    14924.244    4673.9022    138.75378   -97701.536    7452.2495   -90249.286    298.23157    138.85738    98806.522   -119261.56   -90049.194     48.98034 
 1027000   -1327.8228    3296.8944    14831.512     4649.309     141.1633   -97668.823    7503.0662   -90165.756    300.26521    1536.4957    98918.688   -119259.88   -87949.165    48.521372 
 1028000   -1338.8491    3226.8332    14888.069    4585.8319    150.00883   -97774.973    7546.0412   -90228.931    301.98502    864.69201    99118.191   -119286.87   -88978.987    47.900846 
 1029000    -1361.621      3297.58    14875.644    4754.1535     157.2087   -97517.935    7548.3898   -89969.545    302.07901    1001.0927    98417.053    -119240.9   -88532.665    48.785685 
 1030000   -1329.3757    3271.5104    14902.823    4588.8851    139.46339   -97700.369    7476.3534   -90224.016    299.19619    124.97409    99819.517   -119273.68   -90042.083     47.70816 
 1031000   -1269.8812    3287.1101    14953.753    4609.3949    144.47751   -97570.794    7532.6101   -90038.183    301.44753    961.23135    99391.918   -119295.65    -88644.85    49.204443 
 1032000   -1350.4615    3224.8121     14852.18     4634.457    154.24747    -97733.79    7481.2232   -90252.566    299.39107    755.86323    99457.033   -119249.02   -89156.203    50.232151 
 1033000   -1269.2708    3192.4951    14939.697    4578.6784     153.3476   -97610.819    7549.5266   -90061.292    302.12451    1335.2274     99106.85   -119205.77   -88131.392    49.365417 
 1034000   -1262.0142    3220.1084    14817.709    4599.6975    140.63873   -97740.482    7478.6496   -90261.832    299.28808    1568.0646    99863.296   -119256.62   -87978.097    49.523811 
 1035000   -1351.1501    3301.5592    14942.095    4661.8596    147.52313   -97582.564    7497.7374   -90084.826    300.05195    529.70641     98924.66   -119284.45   -89320.611    48.482458 
 1036000    -1335.388    3229.5506    14853.687     4606.257    134.87791   -97739.472    7525.4918    -90213.98    301.16266    713.33058    99557.019   -119228.46   -89178.269    48.449408 
 1037000   -1329.1482    3213.3201    14869.845    4655.4637     138.5507   -97718.336      7491.99   -90226.346    299.82195    1341.2994    99261.749   -119266.37    -88284.64    50.133709 
 1038000   -1276.6947    3290.3426    14948.884    4592.0362     127.8683   -97564.597    7499.6863   -90064.911    300.12995    822.72493    99862.599   -119247.03     -88866.7    49.008487 
 1039000   -1319.9172    3211.9938    14838.069    4681.7421    145.24531    -97713.36    7408.7751   -90304.585    296.49177     525.4522    98557.606   -119270.49    -89549.32    49.732281 
 1040000   -1304.5085    3168.6359    14893.117    4580.6694    136.56919    -97771.01     7569.405   -90201.605    302.92002    1371.9491    99081.871   -119245.49   -88219.129    50.183249 
 1041000   -1346.9796    3241.9161    14939.301     4666.991    165.84644   -97620.298    7659.1583   -89961.139    306.51185     548.3783    98484.313   -119287.37   -89173.508    49.365869 
 1042000   -1363.0739    3207.2422    14909.464    4649.6704     153.3377   -97716.651     7433.406   -90283.245    297.47747    1116.7348    98950.598   -119273.29   -88671.693    49.179209 
 1043000   -1367.8919    3179.8435    15010.769    4621.2454    138.84003   -97722.934    7548.5577   -90174.377    302.08573   -127.04008    99059.472   -119305.74   -90357.909    49.472272 
 1044000   -1261.1454    3196.0635    14891.907    4611.0542     144.5217   -97691.608    7468.1607   -90223.448    298.86832    1536.8094    99756.311   -119274.01   -87987.631    49.681028 
 1045000   -1341.9291    3212.7122    14892.196    4669.9689     147.9672   -97644.579     7651.859    -89992.72    306.21974    942.45128    99027.684   -119225.49   -88631.616    49.372771 
 1046000   -1263.8598    3171.0803    14925.861    4639.4028    137.82181   -97684.118    7498.6582    -90185.46     300.0888    768.23107    98461.759   -119294.42   -89082.308    49.802575 
 1047000   -1307.7758    3106.9919    14884.153    4643.2846    146.69383   -97753.556    7593.7842   -90159.771    303.89565    773.51016    98791.061    -119226.9   -89045.324    49.687883 
 1048000   -1315.8433    3250.9368    14939.622    4693.2907    154.01425   -97578.729    7556.0178   -90022.712    302.38428    904.37928    98915.936   -119300.75   -88718.065    49.914967 
 1049000    -1286.944    3206.1711    14905.699    4669.6672    153.43583   -97628.588    7505.4328   -90123.155    300.35992    1353.1083    99526.601   -119276.62   -88159.127    50.379349 
 1050000    -1371.785    3238.2208    14886.629    4631.3898     127.7717   -97815.031    7515.9676   -90299.064    300.78151    895.63027     99307.95   -119327.26   -89001.918    50.196646 
 1051000   -1303.5072    3152.1821    14976.403    4625.4912    143.28895   -97687.185    7521.9599   -90165.226    301.02131    788.47903    99330.013   -119281.04   -89023.014    50.062939 
 1052000   -1294.1441    3216.2092    14877.637    4678.5754    135.87035   -97674.978    7471.3255   -90203.653    298.99497    681.65107    98840.514   -119289.13   -89221.061    49.611854 
 1053000   -1246.4833    3174.8088     14951.49    4580.5928    145.80768    -97666.46    7602.9816   -90063.478    304.26372       1286.1    99144.973   -119272.68    -88203.87    50.012246 
 1054000   -1247.1486    3207.8065    14914.435    4613.8596    135.98581   -97657.263    7582.2823   -90074.981    303.43535    984.21562    99917.881    -119282.2   -88640.782    49.874658 
 1055000   -1328.3217    3214.7247    14883.002    4661.6124    139.68378   -97740.632    7561.2783   -90179.354     302.5948    1430.1384     99065.75   -119311.33    -88113.13    49.524613 
 1056000   -1343.5431     3175.535    14889.272    4650.4563    145.77046   -97709.264    7608.0101   -90101.254    304.46495    190.13892    98913.788   -119226.76   -89826.968    50.100753 
 1057000   -1290.4578    3202.8441      14807.5    4655.3504     148.3536   -97764.153    7456.7092   -90307.444    298.41004    1970.8778    99071.196   -119287.74   -87459.817    50.638809 
 1058000   -1304.6233    3177.2984     14922.23    4744.1098    147.44476   -97581.151    7510.1034   -90071.048    300.54683    2500.6555    98156.454   -119267.61   -86491.331     50.52137 
 1059000   -1305.9015    3240.5643    14925.989    4580.6273    130.58091   -97664.528    7500.4085   -90164.119    300.15885    1029.3849    99404.028   -119236.39   -88671.814    50.425035 
 1060000   -1355.8866    3191.9889     14925.01     4685.763    155.81345   -97712.748     7476.057   -90236.691    299.18432   -60.328805    98393.979   -119315.44   -90323.261    48.742124 
 1061000   -1377.3161    3130.3225    14916.232    4708.6542    145.43537   -97734.433    7615.6718   -90118.762    304.77157    660.28458    98712.253   -119257.76   -89168.205    50.421926 
 1062000    -1325.514    3123.7947     14886.37    4644.8446    139.50959   -97803.787    7478.0624   -90325.725    299.26458    2737.9677    98556.105   -119272.79   -86390.335    50.644845 
 1063000   -1269.7508    3209.4842    14927.343    4636.0662    139.46621   -97637.439    7538.7596   -90098.679    301.69362    960.55607    99602.498   -119280.05   -88703.375    50.140793 
 1064000   -1314.4303    3192.6868    14885.209    4611.7366    147.10307   -97751.095    7520.8138   -90230.281    300.97545    849.24078    98469.293    -119273.4   -89010.709    49.629944 
 1065000   -1313.2517    3152.7679    14935.303    4704.6455    144.38155   -97588.342    7570.1323    -90018.21    302.94913    1262.7204    98640.701   -119212.19   -88201.694    49.538922 
 1066000   -1301.5959    3279.8921    14874.742    4644.6253    137.41903   -97660.059    7541.0224   -90119.037    301.78418     1063.841    98829.725   -119295.14   -88585.691    49.822406 
 1067000   -1341.2671    3130.3124    14830.994    4737.6831     136.8667    -97759.36    7437.4412   -90321.919    297.63896    166.13813    99129.955   -119253.95   -90081.731    50.334685 
 1068000   -1374.0767    3185.6027    14911.425    4634.1763    143.90146   -97756.922    7533.1697   -90223.752    301.46992    569.42782    98404.745   -119257.95   -89406.548    50.007244 
 1069000   -1397.6122    3247.7692    14857.347    4703.8377    146.03484     -97731.2    7533.7142   -90197.486    301.49171    981.89816    98226.672   -119288.58   -88790.882    49.504907 
 1070000   -1347.8667    3171.8575    14888.235    4606.2399    138.31177   -97778.015    7647.8671   -90130.148    306.05999    1252.7261    98340.702   -119234.79   -88333.491     48.98003 
 1071000   -1397.1574    3198.6177    14867.484    4694.3619    148.64185   -97742.309    7427.8486   -90314.461    297.25507    512.50787    98455.943   -119254.26   -89578.561    50.364658 
 1072000   -1354.1094    3187.8624    14941.775    4626.6499    147.03692    -97714.96     7487.984   -90226.976    299.66163    975.58359    98060.058   -119264.17   -88831.788    50.232231 
 1073000   -1358.6149    3243.2681    14943.523    4672.3579    138.12737    -97644.44    7510.3749   -90134.065    300.55769    595.22866    99176.088    -119283.1   -89273.137     50.18024 
 1074000   -1311.4128    3164.0478    14929.147    4661.7511    150.63983    -97737.55    7466.6349   -90270.915    298.80726    2183.9423    98404.035   -119331.72   -87136.692    49.908323 
 1075000   -1271.3825    3236.9512    14899.814    4651.2145    144.92093   -97606.093    7502.9382   -90103.154    300.26008    1330.0675    99535.263   -119267.61   -88172.402    49.906373 
 1076000   -1363.2717    3104.6373    14882.654    4738.1089    154.18388   -97709.717     7500.666   -90209.051    300.16915    1098.1757    97950.053   -119226.03   -88640.306    50.004498 
 1077000   -1303.5656      3273.93    14922.338    4636.6352    142.38828   -97641.053     7544.409   -90096.645     301.9197    435.68167    98642.193   -119312.78   -89469.875    49.733916 
 1078000   -1322.2685    3207.6911    14909.078    4726.5817    148.50879   -97618.346    7496.8501   -90121.496    300.01644    649.63872    99023.883   -119287.94   -89183.312    48.891483 
 1079000   -1338.2629    3190.2658    14897.905    4726.5632    151.52976   -97666.018    7522.4075    -90143.61    301.03923    1747.0266    98476.236   -119294.02   -87634.574    50.491864 
 1080000   -1267.8219    3182.4125    14887.083    4687.4853    139.22482   -97682.536    7500.2376   -90182.298    300.15201    1958.2574    98904.611   -119310.92   -87357.664    48.880471 
 1081000   -1366.9259    3294.9233     14826.97     4680.694    141.99868   -97684.781    7548.1713    -90136.61    302.07027    894.29708    97725.869   -119262.44   -88862.029     49.13065 
 1082000   -1384.6507    3227.6023     14903.46    4676.0778    140.07402   -97674.462    7516.4673   -90157.994     300.8015    912.60561      97991.3   -119237.03   -88853.787     48.44325 
 1083000   -1375.5813    3193.8922     14849.24    4597.6609    133.98339    -97837.93    7546.0404    -90291.89    301.98499    469.12925    98772.377   -119237.13   -89616.112    48.145018 
 1084000    -1295.017    3198.8626    14914.223    4613.0168    161.17439   -97666.005    7598.0503   -90067.954    304.06637    2004.3247    98678.483   -119258.26   -87183.482    49.373997 
 1085000    -1313.531    3231.0091    14927.982    4685.0892    151.91405   -97615.437    7394.0248   -90221.412    295.90148    957.33486    99266.041    -119297.9   -88835.484    48.912169 
 1086000   -1304.0457    3213.3581    14945.104    4659.9128    137.97573   -97623.955    7517.3614   -90106.593    300.83729    611.19874    98799.258   -119276.26   -89225.926    48.554097 
 1087000   -1326.2362    3258.9227    14826.535    4644.0149    152.54121   -97734.243    7584.8005   -90149.442    303.53613    476.79783    98584.823   -119290.02   -89463.922    48.236963 
 1088000   -1352.9065    3113.0044    14838.409    4665.3968    159.58485   -97804.061    7409.0088   -90395.053    296.50112    948.35176    98605.168   -119227.55    -89031.27    49.506255 
 1089000   -1336.1192    3235.6233    14891.462    4652.4347    146.47061   -97661.485    7574.2193   -90087.266    303.11268    1658.0932    98721.139   -119251.36   -87700.032    49.663756 
 1090000   -1399.2809    3307.5201    14967.496    4648.9727    148.91203   -97616.549    7462.5052   -90154.043      298.642   -1177.6076    98727.813   -119290.17   -91849.614    48.670966 
 1091000   -1303.6307    3186.1585     14935.68    4577.7329    157.58178   -97704.606     7470.603   -90234.003    298.96606   -240.59884    99294.392   -119258.13   -90582.416    49.712192 
 1092000   -1329.8334    3197.2188    14826.215    4621.5925    149.82349   -97743.175    7380.1781   -90362.997    295.34735    967.52777    99101.917   -119208.19   -88964.629    49.674749 
 1093000   -1301.3335    3239.0808     14890.47    4583.9509    146.74524   -97706.077    7498.1561   -90207.921    300.06871    977.99614    98999.046   -119264.99   -88795.891    49.423355 
 1094000   -1286.9542    3246.8952    14905.343    4562.5509    142.33743    -97713.52    7555.1963   -90158.324     302.3514    214.38117    98601.519   -119283.69   -89850.043    49.911081 
 1095000   -1278.9602    3216.7606     14848.58    4626.2911    144.21234   -97756.929    7447.5341   -90309.394    298.04287    1284.2668    99455.919   -119313.81   -88446.614    50.240257 
 1096000   -1258.3745     3174.108    14965.318    4643.5544    149.51696   -97614.865    7530.4495   -90084.416    301.36106    2352.9619    99009.114   -119288.99   -86686.865    49.530498 
 1097000   -1306.3117    3185.6114    14861.668    4640.1903     141.3586   -97739.175    7499.9625   -90239.213      300.141    1090.9855    98968.145   -119261.69    -88664.54    49.719737 
 1098000   -1264.3841    3206.1216    14835.713    4614.0229    151.49925   -97682.097    7533.2775   -90148.819    301.47423    1046.5254    99049.081   -119225.07   -88637.083    50.079063 
 1099000   -1346.5463    3273.3015    14950.682    4614.0704    149.23281     -97633.6    7423.6982   -90209.901    297.08898    528.56589    98566.432   -119274.34   -89450.093    49.470071 
 1100000   -1316.9772    3202.1136    14950.768    4624.3866    158.96106   -97636.239     7625.241   -90010.998    305.15452    835.06613    98663.135   -119255.49   -88809.421    48.911215 
 1101000   -1313.2243    3198.5522    14799.946    4667.6974    150.68129   -97766.382    7621.3764   -90145.005    304.99986    915.62625    99087.208   -119270.03   -88821.847    49.857194 
Loop time of 10039 on 56 procs for 500000 steps with 8384 atoms

Performance: 4.303 ns/day, 5.577 hours/ns, 49.806 timesteps/s
97.3% CPU use with 56 MPI tasks x no OpenMP threads

MPI task timing breakdown:
Section |  min time  |  avg time  |  max time  |%varavg| %total
---------------------------------------------------------------
Pair    | 5405.6     | 6535.6     | 7376.8     | 470.9 | 65.10
Bond    | 163.27     | 210.32     | 259.38     | 133.5 |  2.10
Kspace  | 1094       | 1984.1     | 3127.1     | 877.0 | 19.76
Neigh   | 75.899     | 76.21      | 76.462     |   2.5 |  0.76
Comm    | 115.43     | 277.43     | 310.68     | 260.8 |  2.76
Output  | 0.035761   | 0.036168   | 0.045713   |   0.7 |  0.00
Modify  | 500.4      | 596.19     | 1115.6     | 563.1 |  5.94
Other   |            | 359.1      |            |       |  3.58

Nlocal:        149.714 ave         171 max         128 min
Histogram: 1 2 8 10 5 12 9 4 2 3
Nghost:        5926.79 ave        6056 max        5852 min
Histogram: 7 9 12 2 11 6 3 3 1 2
Neighs:        72823.9 ave       85909 max       61369 min
Histogram: 1 5 7 8 12 10 7 2 3 1

Total # of neighbors = 4078140
Ave neighs/atom = 486.41937
Ave special neighs/atom = 6.1984733
Neighbor list builds = 17626
Dangerous builds = 0
write_data      data_3_100MPa.*
System init for write_data ...
PPPM initialization ...
  using 12-bit tables for long-range coulomb (../kspace.cpp:340)
  G vector (1/distance) = 0.27637013
  grid = 45 48 60
  stencil order = 5
  estimated absolute RMS force accuracy = 0.00020692387
  estimated relative force accuracy = 6.2314507e-07
  using double precision FFTW3
  3d grid and FFT values/proc = 9690 4320
unfix 1






