LAMMPS (29 Sep 2021)
clear
units real
boundary p p p
atom_style full


neighbor 2.0 bin


# ------------------------ MOF-FF FORCE FIELD ------------------------------


pair_style buck6d/coul/gauss/long     0.9000     0.9000    12.0000
box tilt large
dihedral_style opls
improper_style inversion/harmonic
read_data 		C7_222.data
Reading data file ...
  orthogonal box = (0.0000000 0.0000000 0.0000000) to (51.703312 51.703314 51.703314)
  2 by 4 by 7 MPI processor grid
  reading atoms ...
  11840 atoms
  scanning bonds ...
  4 = max bonds/atom
  scanning angles ...
  6 = max angles/atom
  scanning dihedrals ...
  36 = max dihedrals/atom
  scanning impropers ...
  2 = max impropers/atom
  reading bonds ...
  12544 bonds
  reading angles ...
  23808 angles
  reading dihedrals ...
  34944 dihedrals
  reading impropers ...
  1536 impropers
Finding 1-2 1-3 1-4 neighbors ...
  special bond factors lj:    0        0        0       
  special bond factors coul:  0        0        0       
     4 = max # of 1-2 neighbors
    12 = max # of 1-3 neighbors
    24 = max # of 1-4 neighbors
    22 = max # of special neighbors
  special bonds CPU = 0.003 seconds
  read_data CPU = 0.088 seconds
include			parameters.dat.txt

# ------------------------ MOF-FF FORCE FIELD ------------------------------

kspace_style ewald      1e-06
pair_style buck6d/coul/gauss/long     0.9000     0.9000    12.0000

pair_coeff     1     1           50784       2.6200873       5731.7134        39.94184      0.34105377    # buck6d->(zn4_o4@zn4o)|Zn4O_benz/gaussian->(zn4_o4@zn4o)|Zn4O_benz <--> buck6d->(zn4_o4@zn4o)|Zn4O_benz/gaussian->(zn4_o4@zn4o)|Zn4O_benz
pair_coeff     1     2       13670.593       3.1662269       495.43572       2.8200727      0.45538243    # buck6d->(zn4_o4@zn4o)|Zn4O_benz/gaussian->(zn4_o4@zn4o)|Zn4O_benz <--> buck6d->(h1_c1@ph)|benzene/gaussian->(h1_c1@ph)|benzene
pair_coeff     1     3       13670.593       3.1662269       495.43572       2.8200727      0.45538243    # buck6d->(zn4_o4@zn4o)|Zn4O_benz/gaussian->(zn4_o4@zn4o)|Zn4O_benz <--> buck6d->(h1_c1@me)|butane/gaussian->(h1_c1@me)|butane
pair_coeff     1     4       22875.278       2.8235294       1648.4078        14.02027      0.42066066    # buck6d->(zn4_o4@zn4o)|Zn4O_benz/gaussian->(zn4_o4@zn4o)|Zn4O_benz <--> buck6d->(c3_c2h1@ph)|benzene/gaussian->(c3_c3@ph)|Zn4O_benz
pair_coeff     1     5       22875.278       2.8235294       1648.4078        14.02027      0.42066187    # buck6d->(zn4_o4@zn4o)|Zn4O_benz/gaussian->(zn4_o4@zn4o)|Zn4O_benz <--> buck6d->(c3_c2h1@ph)|benzene/gaussian->(c3_c2h1@ph)|benzene
pair_coeff     1     6       22875.278       2.8235294       1648.4078        14.02027      0.42066187    # buck6d->(zn4_o4@zn4o)|Zn4O_benz/gaussian->(zn4_o4@zn4o)|Zn4O_benz <--> buck6d->(c3_c2o1@ph)|ph-O-butyl/gaussian->(c3_c2o1@ph)|ph-O-butyl
pair_coeff     1     7       22875.278       2.8368794       1602.4086       13.124311      0.42066066    # buck6d->(zn4_o4@zn4o)|Zn4O_benz/gaussian->(zn4_o4@zn4o)|Zn4O_benz <--> buck6d->(c3_c1o2@co2)|Zn4O_benz/gaussian->(c3_c1o2@co2)|Zn4O_benz
pair_coeff     1     8       15883.794       2.7713626       1280.1071       18.202956      0.42066187    # buck6d->(zn4_o4@zn4o)|Zn4O_benz/gaussian->(zn4_o4@zn4o)|Zn4O_benz <--> buck6d->(c4_c2h2@me)|butane/gaussian->(c4_c2h2@me)|butane
pair_coeff     1     9       15883.794       2.7713626       1280.1071       18.202956      0.42066187    # buck6d->(zn4_o4@zn4o)|Zn4O_benz/gaussian->(zn4_o4@zn4o)|Zn4O_benz <--> buck6d->(c4_c1h3@me)|butane/gaussian->(c4_c1h3@me)|butane
pair_coeff     1    10       15883.794       2.7713626       1280.1071       18.202956      0.42066187    # buck6d->(zn4_o4@zn4o)|Zn4O_benz/gaussian->(zn4_o4@zn4o)|Zn4O_benz <--> buck6d->(c4_c1h2o1@me)|ph-O-butyl/gaussian->(c4_c1h2o1@me)|ph-O-butyl
pair_coeff     1    11       23480.015        2.919708       1383.9296       8.7719648      0.42456807    # buck6d->(zn4_o4@zn4o)|Zn4O_benz/gaussian->(zn4_o4@zn4o)|Zn4O_benz <--> buck6d->(o4_zn4@zn4o)|Zn4O_benz/gaussian->(o4_zn4@zn4o)|Zn4O_benz
pair_coeff     1    12       23480.015        2.919708       1383.9296       8.7719648      0.42457209    # buck6d->(zn4_o4@zn4o)|Zn4O_benz/gaussian->(zn4_o4@zn4o)|Zn4O_benz <--> buck6d->(o2_c2@eth)|ph-O-butyl/gaussian->(o2_c2@eth)|ph-O-butyl
pair_coeff     1    13       23480.015        2.919708       1383.9296       8.7719648      0.42456807    # buck6d->(zn4_o4@zn4o)|Zn4O_benz/gaussian->(zn4_o4@zn4o)|Zn4O_benz <--> buck6d->(o2_c1zn1@co2)|Zn4O_benz/gaussian->(o2_c1zn1@co2)|Zn4O_benz
pair_coeff     2     2            3680               4          32.805      0.10690769       0.9771554    # buck6d->(h1_c1@ph)|benzene/gaussian->(h1_c1@ph)|benzene <--> buck6d->(h1_c1@ph)|benzene/gaussian->(h1_c1@ph)|benzene
pair_coeff     2     3            3680               4          32.805      0.10690769       0.9771554    # buck6d->(h1_c1@ph)|benzene/gaussian->(h1_c1@ph)|benzene <--> buck6d->(h1_c1@me)|butane/gaussian->(h1_c1@me)|butane
pair_coeff     2     4       6157.8178       3.4682081       129.19572      0.78772886      0.73005908    # buck6d->(h1_c1@ph)|benzene/gaussian->(h1_c1@ph)|benzene <--> buck6d->(c3_c2h1@ph)|benzene/gaussian->(c3_c3@ph)|Zn4O_benz
pair_coeff     2     5       6157.8178       3.4682081       129.19572      0.78772886      0.73006542    # buck6d->(h1_c1@ph)|benzene/gaussian->(h1_c1@ph)|benzene <--> buck6d->(c3_c2h1@ph)|benzene/gaussian->(c3_c2h1@ph)|benzene
pair_coeff     2     6       6157.8178       3.4682081       129.19572      0.78772886      0.73006542    # buck6d->(h1_c1@ph)|benzene/gaussian->(h1_c1@ph)|benzene <--> buck6d->(c3_c2o1@ph)|ph-O-butyl/gaussian->(c3_c2o1@ph)|ph-O-butyl
pair_coeff     2     7       6157.8178       3.4883721        124.7792      0.72632262      0.73005908    # buck6d->(h1_c1@ph)|benzene/gaussian->(h1_c1@ph)|benzene <--> buck6d->(c3_c1o2@co2)|Zn4O_benz/gaussian->(c3_c1o2@co2)|Zn4O_benz
pair_coeff     2     8       4275.7736       3.3898305       102.89611       1.0848184      0.73006542    # buck6d->(h1_c1@ph)|benzene/gaussian->(h1_c1@ph)|benzene <--> buck6d->(c4_c2h2@me)|butane/gaussian->(c4_c2h2@me)|butane
pair_coeff     2     9       4275.7736       3.3898305       102.89611       1.0848184      0.73006542    # buck6d->(h1_c1@ph)|benzene/gaussian->(h1_c1@ph)|benzene <--> buck6d->(c4_c1h3@me)|butane/gaussian->(c4_c1h3@me)|butane
pair_coeff     2    10       4275.7736       3.3898305       102.89611       1.0848184      0.73006542    # buck6d->(h1_c1@ph)|benzene/gaussian->(h1_c1@ph)|benzene <--> buck6d->(c4_c1h2o1@me)|ph-O-butyl/gaussian->(c4_c1h2o1@me)|ph-O-butyl
pair_coeff     2    11       6320.6076       3.6144578       103.50278      0.44181916      0.75107727    # buck6d->(h1_c1@ph)|benzene/gaussian->(h1_c1@ph)|benzene <--> buck6d->(o4_zn4@zn4o)|Zn4O_benz/gaussian->(o4_zn4@zn4o)|Zn4O_benz
pair_coeff     2    12       6320.6076       3.6144578       103.50278      0.44181916      0.75109952    # buck6d->(h1_c1@ph)|benzene/gaussian->(h1_c1@ph)|benzene <--> buck6d->(o2_c2@eth)|ph-O-butyl/gaussian->(o2_c2@eth)|ph-O-butyl
pair_coeff     2    13       6320.6076       3.6144578       103.50278      0.44181916      0.75107727    # buck6d->(h1_c1@ph)|benzene/gaussian->(h1_c1@ph)|benzene <--> buck6d->(o2_c1zn1@co2)|Zn4O_benz/gaussian->(o2_c1zn1@co2)|Zn4O_benz
pair_coeff     3     3            3680               4          32.805      0.10690769       0.9771554    # buck6d->(h1_c1@me)|butane/gaussian->(h1_c1@me)|butane <--> buck6d->(h1_c1@me)|butane/gaussian->(h1_c1@me)|butane
pair_coeff     3     4       6157.8178       3.4682081       129.19572      0.78772886      0.73005908    # buck6d->(h1_c1@me)|butane/gaussian->(h1_c1@me)|butane <--> buck6d->(c3_c2h1@ph)|benzene/gaussian->(c3_c3@ph)|Zn4O_benz
pair_coeff     3     5       6157.8178       3.4682081       129.19572      0.78772886      0.73006542    # buck6d->(h1_c1@me)|butane/gaussian->(h1_c1@me)|butane <--> buck6d->(c3_c2h1@ph)|benzene/gaussian->(c3_c2h1@ph)|benzene
pair_coeff     3     6       6157.8178       3.4682081       129.19572      0.78772886      0.73006542    # buck6d->(h1_c1@me)|butane/gaussian->(h1_c1@me)|butane <--> buck6d->(c3_c2o1@ph)|ph-O-butyl/gaussian->(c3_c2o1@ph)|ph-O-butyl
pair_coeff     3     7       6157.8178       3.4883721        124.7792      0.72632262      0.73005908    # buck6d->(h1_c1@me)|butane/gaussian->(h1_c1@me)|butane <--> buck6d->(c3_c1o2@co2)|Zn4O_benz/gaussian->(c3_c1o2@co2)|Zn4O_benz
pair_coeff     3     8       4275.7736       3.3898305       102.89611       1.0848184      0.73006542    # buck6d->(h1_c1@me)|butane/gaussian->(h1_c1@me)|butane <--> buck6d->(c4_c2h2@me)|butane/gaussian->(c4_c2h2@me)|butane
pair_coeff     3     9       4275.7736       3.3898305       102.89611       1.0848184      0.73006542    # buck6d->(h1_c1@me)|butane/gaussian->(h1_c1@me)|butane <--> buck6d->(c4_c1h3@me)|butane/gaussian->(c4_c1h3@me)|butane
pair_coeff     3    10       4275.7736       3.3898305       102.89611       1.0848184      0.73006542    # buck6d->(h1_c1@me)|butane/gaussian->(h1_c1@me)|butane <--> buck6d->(c4_c1h2o1@me)|ph-O-butyl/gaussian->(c4_c1h2o1@me)|ph-O-butyl
pair_coeff     3    11       6320.6076       3.6144578       103.50278      0.44181916      0.75107727    # buck6d->(h1_c1@me)|butane/gaussian->(h1_c1@me)|butane <--> buck6d->(o4_zn4@zn4o)|Zn4O_benz/gaussian->(o4_zn4@zn4o)|Zn4O_benz
pair_coeff     3    12       6320.6076       3.6144578       103.50278      0.44181916      0.75109952    # buck6d->(h1_c1@me)|butane/gaussian->(h1_c1@me)|butane <--> buck6d->(o2_c2@eth)|ph-O-butyl/gaussian->(o2_c2@eth)|ph-O-butyl
pair_coeff     3    13       6320.6076       3.6144578       103.50278      0.44181916      0.75107727    # buck6d->(h1_c1@me)|butane/gaussian->(h1_c1@me)|butane <--> buck6d->(o2_c1zn1@co2)|Zn4O_benz/gaussian->(o2_c1zn1@co2)|Zn4O_benz
pair_coeff     4     4           10304       3.0612245       457.17971       4.5218516      0.60800239    # buck6d->(c3_c2h1@ph)|benzene/gaussian->(c3_c3@ph)|Zn4O_benz <--> buck6d->(c3_c2h1@ph)|benzene/gaussian->(c3_c3@ph)|Zn4O_benz
pair_coeff     4     5           10304       3.0612245       457.17971       4.5218516      0.60800605    # buck6d->(c3_c2h1@ph)|benzene/gaussian->(c3_c3@ph)|Zn4O_benz <--> buck6d->(c3_c2h1@ph)|benzene/gaussian->(c3_c2h1@ph)|benzene
pair_coeff     4     6           10304       3.0612245       457.17971       4.5218516      0.60800605    # buck6d->(c3_c2h1@ph)|benzene/gaussian->(c3_c3@ph)|Zn4O_benz <--> buck6d->(c3_c2o1@ph)|ph-O-butyl/gaussian->(c3_c2o1@ph)|ph-O-butyl
pair_coeff     4     7           10304       3.0769231       443.36171       4.2093581      0.60800239    # buck6d->(c3_c2h1@ph)|benzene/gaussian->(c3_c3@ph)|Zn4O_benz <--> buck6d->(c3_c1o2@co2)|Zn4O_benz/gaussian->(c3_c1o2@co2)|Zn4O_benz
pair_coeff     4     8       7154.7377               3       358.35904               6      0.60800605    # buck6d->(c3_c2h1@ph)|benzene/gaussian->(c3_c3@ph)|Zn4O_benz <--> buck6d->(c4_c2h2@me)|butane/gaussian->(c4_c2h2@me)|butane
pair_coeff     4     9       7154.7377               3       358.35904               6      0.60800605    # buck6d->(c3_c2h1@ph)|benzene/gaussian->(c3_c3@ph)|Zn4O_benz <--> buck6d->(c4_c1h3@me)|butane/gaussian->(c4_c1h3@me)|butane
pair_coeff     4    10       7154.7377               3       358.35904               6      0.60800605    # buck6d->(c3_c2h1@ph)|benzene/gaussian->(c3_c3@ph)|Zn4O_benz <--> buck6d->(c4_c1h2o1@me)|ph-O-butyl/gaussian->(c4_c1h2o1@me)|ph-O-butyl
pair_coeff     4    11       10576.399       3.1746032       377.27092       2.7176691      0.61998309    # buck6d->(c3_c2h1@ph)|benzene/gaussian->(c3_c3@ph)|Zn4O_benz <--> buck6d->(o4_zn4@zn4o)|Zn4O_benz/gaussian->(o4_zn4@zn4o)|Zn4O_benz
pair_coeff     4    12       10576.399       3.1746032       377.27092       2.7176691       0.6199956    # buck6d->(c3_c2h1@ph)|benzene/gaussian->(c3_c3@ph)|Zn4O_benz <--> buck6d->(o2_c2@eth)|ph-O-butyl/gaussian->(o2_c2@eth)|ph-O-butyl
pair_coeff     4    13       10576.399       3.1746032       377.27092       2.7176691      0.61998309    # buck6d->(c3_c2h1@ph)|benzene/gaussian->(c3_c3@ph)|Zn4O_benz <--> buck6d->(o2_c1zn1@co2)|Zn4O_benz/gaussian->(o2_c1zn1@co2)|Zn4O_benz
pair_coeff     5     5           10304       3.0612245       457.17971       4.5218516      0.60800971    # buck6d->(c3_c2h1@ph)|benzene/gaussian->(c3_c2h1@ph)|benzene <--> buck6d->(c3_c2h1@ph)|benzene/gaussian->(c3_c2h1@ph)|benzene
pair_coeff     5     6           10304       3.0612245       457.17971       4.5218516      0.60800971    # buck6d->(c3_c2h1@ph)|benzene/gaussian->(c3_c2h1@ph)|benzene <--> buck6d->(c3_c2o1@ph)|ph-O-butyl/gaussian->(c3_c2o1@ph)|ph-O-butyl
pair_coeff     5     7           10304       3.0769231       443.36171       4.2093581      0.60800605    # buck6d->(c3_c2h1@ph)|benzene/gaussian->(c3_c2h1@ph)|benzene <--> buck6d->(c3_c1o2@co2)|Zn4O_benz/gaussian->(c3_c1o2@co2)|Zn4O_benz
pair_coeff     5     8       7154.7377               3       358.35904               6      0.60800971    # buck6d->(c3_c2h1@ph)|benzene/gaussian->(c3_c2h1@ph)|benzene <--> buck6d->(c4_c2h2@me)|butane/gaussian->(c4_c2h2@me)|butane
pair_coeff     5     9       7154.7377               3       358.35904               6      0.60800971    # buck6d->(c3_c2h1@ph)|benzene/gaussian->(c3_c2h1@ph)|benzene <--> buck6d->(c4_c1h3@me)|butane/gaussian->(c4_c1h3@me)|butane
pair_coeff     5    10       7154.7377               3       358.35904               6      0.60800971    # buck6d->(c3_c2h1@ph)|benzene/gaussian->(c3_c2h1@ph)|benzene <--> buck6d->(c4_c1h2o1@me)|ph-O-butyl/gaussian->(c4_c1h2o1@me)|ph-O-butyl
pair_coeff     5    11       10576.399       3.1746032       377.27092       2.7176691      0.61998697    # buck6d->(c3_c2h1@ph)|benzene/gaussian->(c3_c2h1@ph)|benzene <--> buck6d->(o4_zn4@zn4o)|Zn4O_benz/gaussian->(o4_zn4@zn4o)|Zn4O_benz
pair_coeff     5    12       10576.399       3.1746032       377.27092       2.7176691      0.61999948    # buck6d->(c3_c2h1@ph)|benzene/gaussian->(c3_c2h1@ph)|benzene <--> buck6d->(o2_c2@eth)|ph-O-butyl/gaussian->(o2_c2@eth)|ph-O-butyl
pair_coeff     5    13       10576.399       3.1746032       377.27092       2.7176691      0.61998697    # buck6d->(c3_c2h1@ph)|benzene/gaussian->(c3_c2h1@ph)|benzene <--> buck6d->(o2_c1zn1@co2)|Zn4O_benz/gaussian->(o2_c1zn1@co2)|Zn4O_benz
pair_coeff     6     6           10304       3.0612245       457.17971       4.5218516      0.60800971    # buck6d->(c3_c2o1@ph)|ph-O-butyl/gaussian->(c3_c2o1@ph)|ph-O-butyl <--> buck6d->(c3_c2o1@ph)|ph-O-butyl/gaussian->(c3_c2o1@ph)|ph-O-butyl
pair_coeff     6     7           10304       3.0769231       443.36171       4.2093581      0.60800605    # buck6d->(c3_c2o1@ph)|ph-O-butyl/gaussian->(c3_c2o1@ph)|ph-O-butyl <--> buck6d->(c3_c1o2@co2)|Zn4O_benz/gaussian->(c3_c1o2@co2)|Zn4O_benz
pair_coeff     6     8       7154.7377               3       358.35904               6      0.60800971    # buck6d->(c3_c2o1@ph)|ph-O-butyl/gaussian->(c3_c2o1@ph)|ph-O-butyl <--> buck6d->(c4_c2h2@me)|butane/gaussian->(c4_c2h2@me)|butane
pair_coeff     6     9       7154.7377               3       358.35904               6      0.60800971    # buck6d->(c3_c2o1@ph)|ph-O-butyl/gaussian->(c3_c2o1@ph)|ph-O-butyl <--> buck6d->(c4_c1h3@me)|butane/gaussian->(c4_c1h3@me)|butane
pair_coeff     6    10       7154.7377               3       358.35904               6      0.60800971    # buck6d->(c3_c2o1@ph)|ph-O-butyl/gaussian->(c3_c2o1@ph)|ph-O-butyl <--> buck6d->(c4_c1h2o1@me)|ph-O-butyl/gaussian->(c4_c1h2o1@me)|ph-O-butyl
pair_coeff     6    11       10576.399       3.1746032       377.27092       2.7176691      0.61998697    # buck6d->(c3_c2o1@ph)|ph-O-butyl/gaussian->(c3_c2o1@ph)|ph-O-butyl <--> buck6d->(o4_zn4@zn4o)|Zn4O_benz/gaussian->(o4_zn4@zn4o)|Zn4O_benz
pair_coeff     6    12       10576.399       3.1746032       377.27092       2.7176691      0.61999948    # buck6d->(c3_c2o1@ph)|ph-O-butyl/gaussian->(c3_c2o1@ph)|ph-O-butyl <--> buck6d->(o2_c2@eth)|ph-O-butyl/gaussian->(o2_c2@eth)|ph-O-butyl
pair_coeff     6    13       10576.399       3.1746032       377.27092       2.7176691      0.61998697    # buck6d->(c3_c2o1@ph)|ph-O-butyl/gaussian->(c3_c2o1@ph)|ph-O-butyl <--> buck6d->(o2_c1zn1@co2)|Zn4O_benz/gaussian->(o2_c1zn1@co2)|Zn4O_benz
pair_coeff     7     7           10304       3.0927835       429.89352       3.9170177      0.60800239    # buck6d->(c3_c1o2@co2)|Zn4O_benz/gaussian->(c3_c1o2@co2)|Zn4O_benz <--> buck6d->(c3_c1o2@co2)|Zn4O_benz/gaussian->(c3_c1o2@co2)|Zn4O_benz
pair_coeff     7     8       7154.7377       3.0150754       347.74176       5.5933807      0.60800605    # buck6d->(c3_c1o2@co2)|Zn4O_benz/gaussian->(c3_c1o2@co2)|Zn4O_benz <--> buck6d->(c4_c2h2@me)|butane/gaussian->(c4_c2h2@me)|butane
pair_coeff     7     9       7154.7377       3.0150754       347.74176       5.5933807      0.60800605    # buck6d->(c3_c1o2@co2)|Zn4O_benz/gaussian->(c3_c1o2@co2)|Zn4O_benz <--> buck6d->(c4_c1h3@me)|butane/gaussian->(c4_c1h3@me)|butane
pair_coeff     7    10       7154.7377       3.0150754       347.74176       5.5933807      0.60800605    # buck6d->(c3_c1o2@co2)|Zn4O_benz/gaussian->(c3_c1o2@co2)|Zn4O_benz <--> buck6d->(c4_c1h2o1@me)|ph-O-butyl/gaussian->(c4_c1h2o1@me)|ph-O-butyl
pair_coeff     7    11       10576.399       3.1914894       365.45138       2.5231391      0.61998309    # buck6d->(c3_c1o2@co2)|Zn4O_benz/gaussian->(c3_c1o2@co2)|Zn4O_benz <--> buck6d->(o4_zn4@zn4o)|Zn4O_benz/gaussian->(o4_zn4@zn4o)|Zn4O_benz
pair_coeff     7    12       10576.399       3.1914894       365.45138       2.5231391       0.6199956    # buck6d->(c3_c1o2@co2)|Zn4O_benz/gaussian->(c3_c1o2@co2)|Zn4O_benz <--> buck6d->(o2_c2@eth)|ph-O-butyl/gaussian->(o2_c2@eth)|ph-O-butyl
pair_coeff     7    13       10576.399       3.1914894       365.45138       2.5231391      0.61998309    # buck6d->(c3_c1o2@co2)|Zn4O_benz/gaussian->(c3_c1o2@co2)|Zn4O_benz <--> buck6d->(o2_c1zn1@co2)|Zn4O_benz/gaussian->(o2_c1zn1@co2)|Zn4O_benz
pair_coeff     8     8            4968       2.9411765       280.22525       7.9168726      0.60800971    # buck6d->(c4_c2h2@me)|butane/gaussian->(c4_c2h2@me)|butane <--> buck6d->(c4_c2h2@me)|butane/gaussian->(c4_c2h2@me)|butane
pair_coeff     8     9            4968       2.9411765       280.22525       7.9168726      0.60800971    # buck6d->(c4_c2h2@me)|butane/gaussian->(c4_c2h2@me)|butane <--> buck6d->(c4_c1h3@me)|butane/gaussian->(c4_c1h3@me)|butane
pair_coeff     8    10            4968       2.9411765       280.22525       7.9168726      0.60800971    # buck6d->(c4_c2h2@me)|butane/gaussian->(c4_c2h2@me)|butane <--> buck6d->(c4_c1h2o1@me)|ph-O-butyl/gaussian->(c4_c1h2o1@me)|ph-O-butyl
pair_coeff     8    11       7343.8824       3.1088083       297.03952       3.6436247      0.61998697    # buck6d->(c4_c2h2@me)|butane/gaussian->(c4_c2h2@me)|butane <--> buck6d->(o4_zn4@zn4o)|Zn4O_benz/gaussian->(o4_zn4@zn4o)|Zn4O_benz
pair_coeff     8    12       7343.8824       3.1088083       297.03952       3.6436247      0.61999948    # buck6d->(c4_c2h2@me)|butane/gaussian->(c4_c2h2@me)|butane <--> buck6d->(o2_c2@eth)|ph-O-butyl/gaussian->(o2_c2@eth)|ph-O-butyl
pair_coeff     8    13       7343.8824       3.1088083       297.03952       3.6436247      0.61998697    # buck6d->(c4_c2h2@me)|butane/gaussian->(c4_c2h2@me)|butane <--> buck6d->(o2_c1zn1@co2)|Zn4O_benz/gaussian->(o2_c1zn1@co2)|Zn4O_benz
pair_coeff     9     9            4968       2.9411765       280.22525       7.9168726      0.60800971    # buck6d->(c4_c1h3@me)|butane/gaussian->(c4_c1h3@me)|butane <--> buck6d->(c4_c1h3@me)|butane/gaussian->(c4_c1h3@me)|butane
pair_coeff     9    10            4968       2.9411765       280.22525       7.9168726      0.60800971    # buck6d->(c4_c1h3@me)|butane/gaussian->(c4_c1h3@me)|butane <--> buck6d->(c4_c1h2o1@me)|ph-O-butyl/gaussian->(c4_c1h2o1@me)|ph-O-butyl
pair_coeff     9    11       7343.8824       3.1088083       297.03952       3.6436247      0.61998697    # buck6d->(c4_c1h3@me)|butane/gaussian->(c4_c1h3@me)|butane <--> buck6d->(o4_zn4@zn4o)|Zn4O_benz/gaussian->(o4_zn4@zn4o)|Zn4O_benz
pair_coeff     9    12       7343.8824       3.1088083       297.03952       3.6436247      0.61999948    # buck6d->(c4_c1h3@me)|butane/gaussian->(c4_c1h3@me)|butane <--> buck6d->(o2_c2@eth)|ph-O-butyl/gaussian->(o2_c2@eth)|ph-O-butyl
pair_coeff     9    13       7343.8824       3.1088083       297.03952       3.6436247      0.61998697    # buck6d->(c4_c1h3@me)|butane/gaussian->(c4_c1h3@me)|butane <--> buck6d->(o2_c1zn1@co2)|Zn4O_benz/gaussian->(o2_c1zn1@co2)|Zn4O_benz
pair_coeff    10    10            4968       2.9411765       280.22525       7.9168726      0.60800971    # buck6d->(c4_c1h2o1@me)|ph-O-butyl/gaussian->(c4_c1h2o1@me)|ph-O-butyl <--> buck6d->(c4_c1h2o1@me)|ph-O-butyl/gaussian->(c4_c1h2o1@me)|ph-O-butyl
pair_coeff    10    11       7343.8824       3.1088083       297.03952       3.6436247      0.61998697    # buck6d->(c4_c1h2o1@me)|ph-O-butyl/gaussian->(c4_c1h2o1@me)|ph-O-butyl <--> buck6d->(o4_zn4@zn4o)|Zn4O_benz/gaussian->(o4_zn4@zn4o)|Zn4O_benz
pair_coeff    10    12       7343.8824       3.1088083       297.03952       3.6436247      0.61999948    # buck6d->(c4_c1h2o1@me)|ph-O-butyl/gaussian->(c4_c1h2o1@me)|ph-O-butyl <--> buck6d->(o2_c2@eth)|ph-O-butyl/gaussian->(o2_c2@eth)|ph-O-butyl
pair_coeff    10    13       7343.8824       3.1088083       297.03952       3.6436247      0.61998697    # buck6d->(c4_c1h2o1@me)|ph-O-butyl/gaussian->(c4_c1h2o1@me)|ph-O-butyl <--> buck6d->(o2_c1zn1@co2)|Zn4O_benz/gaussian->(o2_c1zn1@co2)|Zn4O_benz
pair_coeff    11    11           10856       3.2967033        308.7755       1.6022517      0.63270113    # buck6d->(o4_zn4@zn4o)|Zn4O_benz/gaussian->(o4_zn4@zn4o)|Zn4O_benz <--> buck6d->(o4_zn4@zn4o)|Zn4O_benz/gaussian->(o4_zn4@zn4o)|Zn4O_benz
pair_coeff    11    12           10856       3.2967033        308.7755       1.6022517      0.63271443    # buck6d->(o4_zn4@zn4o)|Zn4O_benz/gaussian->(o4_zn4@zn4o)|Zn4O_benz <--> buck6d->(o2_c2@eth)|ph-O-butyl/gaussian->(o2_c2@eth)|ph-O-butyl
pair_coeff    11    13           10856       3.2967033        308.7755       1.6022517      0.63270113    # buck6d->(o4_zn4@zn4o)|Zn4O_benz/gaussian->(o4_zn4@zn4o)|Zn4O_benz <--> buck6d->(o2_c1zn1@co2)|Zn4O_benz/gaussian->(o2_c1zn1@co2)|Zn4O_benz
pair_coeff    12    12           10856       3.2967033        308.7755       1.6022517      0.63272774    # buck6d->(o2_c2@eth)|ph-O-butyl/gaussian->(o2_c2@eth)|ph-O-butyl <--> buck6d->(o2_c2@eth)|ph-O-butyl/gaussian->(o2_c2@eth)|ph-O-butyl
pair_coeff    12    13           10856       3.2967033        308.7755       1.6022517      0.63271443    # buck6d->(o2_c2@eth)|ph-O-butyl/gaussian->(o2_c2@eth)|ph-O-butyl <--> buck6d->(o2_c1zn1@co2)|Zn4O_benz/gaussian->(o2_c1zn1@co2)|Zn4O_benz
pair_coeff    13    13           10856       3.2967033        308.7755       1.6022517      0.63270113    # buck6d->(o2_c1zn1@co2)|Zn4O_benz/gaussian->(o2_c1zn1@co2)|Zn4O_benz <--> buck6d->(o2_c1zn1@co2)|Zn4O_benz/gaussian->(o2_c1zn1@co2)|Zn4O_benz

bond_style hybrid class2 morse harmonic

bond_coeff    13 class2     1.529408   314.283599  -801.423177  1192.116976    # mm3->(c4_c2h2@me,c4_c2h2@me)|butane
bond_coeff     8 class2     1.394074   455.360160 -1161.168407  1727.238006    # mm3->(c3_c2h1@ph,c3_c2o1@ph)|ph-O-butyl
bond_coeff     4 class2     1.101213   365.915223  -933.083819  1387.962181    # mm3->(c4_c2h2@me,h1_c1@me)|butane
bond_coeff     9 class2     1.488000   355.167780  -905.677839  1347.195786    # mm3->(c3_c1o2@co2,c3_c3@ph)|Zn4O_benz
bond_coeff     3 class2     1.094000   390.634200  -996.117210  1481.724350    # mm3->(c3_c2h1@ph,h1_c1@ph)|benzene
bond_coeff     5 class2     1.099390   374.841138  -955.844901  1421.819290    # mm3->(c4_c1h3@me,h1_c1@me)|butane
bond_coeff    10 class2     1.357631   390.806068  -996.555472  1482.376265    # mm3->(c3_c2o1@ph,o2_c2@eth)|ph-O-butyl
bond_coeff     1 morse    50.000000    1.463685     1.987000    # morse->(o4_zn4@zn4o,zn4_o4@zn4o)|Zn4O_benz
bond_coeff    12 class2     1.515294   290.719566  -741.334894  1102.735655    # mm3->(c4_c1h2o1@me,c4_c2h2@me)|ph-O-butyl
bond_coeff     6 class2     1.101119   356.182160  -908.264508  1351.043455    # mm3->(c4_c1h2o1@me,h1_c1@me)|ph-O-butyl
bond_coeff     7 class2     1.394000   509.335200 -1298.804760  1931.972080    # mm3->(c3_c2h1@ph,c3_c2h1@ph)|benzene
bond_coeff    15 class2     1.427071   299.914044  -764.780811  1137.611457    # mm3->(c4_c1h2o1@me,o2_c2@eth)|ph-O-butyl
bond_coeff    14 class2     1.529182   318.631885  -812.511306  1208.610568    # mm3->(c4_c1h3@me,c4_c2h2@me)|butane
bond_coeff     2 morse    50.000000    1.547773     1.917000    # morse->(o2_c1zn1@co2,zn4_o4@zn4o)|Zn4O_benz
bond_coeff    11 class2     1.275000   620.986080 -1583.514504  2355.477825    # mm3->(c3_c1o2@co2,o2_c1zn1@co2)|Zn4O_benz

angle_style hybrid class2/p6 cosine/buck6d

angle_coeff    26 class2/p6      113.257375    69.461048   -55.717548    12.769521    -9.145496    16.468519    # mm3->(c3_c2o1@ph,o2_c2@eth,c4_c1h2o1@me)|ph-O-butyl
angle_coeff    26 class2/p6 bb 0.0 1.0 1.0
angle_coeff    26 class2/p6 ba 0.0 0.0 1.0 1.0
angle_coeff    27 class2/p6      135.606000     6.762360    -5.424366     1.243173    -0.890357     1.603288    # mm3->(c3_c1o2@co2,o2_c1zn1@co2,zn4_o4@zn4o)|Zn4O_benz
angle_coeff    27 class2/p6 bb 0.0 1.0 1.0
angle_coeff    27 class2/p6 ba 0.0 0.0 1.0 1.0
angle_coeff    21 class2/p6      116.818943    25.946625   -20.812849     4.769954    -3.416228     6.151685    # mm3->(h1_c1@me,c4_c1h2o1@me,o2_c2@eth)|ph-O-butyl
angle_coeff    21 class2/p6 bb 0.0 1.0 1.0
angle_coeff    21 class2/p6 ba 0.0 0.0 1.0 1.0
angle_coeff     4 class2/p6      117.296000    57.983640   -46.511050    10.659547    -7.634339    13.747340    # mm3->(c3_c1o2@co2,c3_c3@ph,c3_c2h1@ph)|Zn4O_benz
angle_coeff     4 class2/p6 bb 0.0 1.0 1.0
angle_coeff     4 class2/p6 ba 0.0 0.0 1.0 1.0
angle_coeff     6 class2/p6      120.350000    36.185820   -29.026127     6.652298    -4.764358     8.579296    # mm3->(c3_c2h1@ph,c3_c2h1@ph,h1_c1@ph)|benzene
angle_coeff     6 class2/p6 bb    93.378120     1.394000     1.094000
angle_coeff     6 class2/p6 ba   -25.179000    53.523360     1.394000     1.094000
angle_coeff     1 class2/p6      113.584000     0.000000    -0.000000     0.000000    -0.000000     0.000000    # mm3->(o2_c1zn1@co2,zn4_o4@zn4o,o4_zn4@zn4o)|Zn4O_benz
angle_coeff     1 class2/p6 bb     0.000000     1.917000     1.987000
angle_coeff     1 class2/p6 ba     0.000000     0.000000     1.917000     1.987000
angle_coeff    20 class2/p6      118.378973    29.889438   -23.975541     5.494789    -3.935353     7.086487    # mm3->(c4_c2h2@me,c4_c1h2o1@me,h1_c1@me)|ph-O-butyl
angle_coeff    20 class2/p6 bb 0.0 1.0 1.0
angle_coeff    20 class2/p6 ba 0.0 0.0 1.0 1.0
angle_coeff    24 class2/p6      113.161464    65.779678   -52.764571    12.092749    -8.660793    15.595703    # mm3->(c4_c1h3@me,c4_c2h2@me,c4_c2h2@me)|butane
angle_coeff    24 class2/p6 bb 0.0 1.0 1.0
angle_coeff    24 class2/p6 ba 0.0 0.0 1.0 1.0
angle_coeff    11 class2/p6      123.006000   111.866700   -89.732857    20.565256   -14.728780    26.522474    # mm3->(o2_c1zn1@co2,c3_c1o2@co2,o2_c1zn1@co2)|Zn4O_benz
angle_coeff    11 class2/p6 bb 0.0 1.0 1.0
angle_coeff    11 class2/p6 ba 0.0 0.0 1.0 1.0
angle_coeff    23 class2/p6      110.602540    44.106999   -35.380028     8.108505    -5.807289    10.457328    # mm3->(c4_c1h3@me,c4_c2h2@me,h1_c1@me)|butane
angle_coeff    23 class2/p6 bb 0.0 1.0 1.0
angle_coeff    23 class2/p6 ba 0.0 0.0 1.0 1.0
angle_coeff    13 class2/p6      110.342401    30.766657   -24.679194     5.656055    -4.050851     7.294466    # mm3->(c4_c1h2o1@me,c4_c2h2@me,h1_c1@me)|ph-O-butyl
angle_coeff    13 class2/p6 bb 0.0 1.0 1.0
angle_coeff    13 class2/p6 ba 0.0 0.0 1.0 1.0
angle_coeff     7 class2/p6      117.983314    23.459678   -18.817967     4.312760    -3.088787     5.562055    # mm3->(c3_c2o1@ph,c3_c2h1@ph,h1_c1@ph)|ph-O-butyl
angle_coeff     7 class2/p6 bb 0.0 1.0 1.0
angle_coeff     7 class2/p6 ba 0.0 0.0 1.0 1.0
angle_coeff    16 class2/p6      113.161464    65.779678   -52.764571    12.092749    -8.660793    15.595703    # mm3->(c4_c2h2@me,c4_c2h2@me,c4_c2h2@me)|butane
angle_coeff    16 class2/p6 bb 0.0 1.0 1.0
angle_coeff    16 class2/p6 ba 0.0 0.0 1.0 1.0
angle_coeff    19 class2/p6      114.761173    31.409569   -25.194901     5.774246    -4.135499     7.446894    # mm3->(h1_c1@me,c4_c1h2o1@me,h1_c1@me)|ph-O-butyl
angle_coeff    19 class2/p6 bb 0.0 1.0 1.0
angle_coeff    19 class2/p6 ba 0.0 0.0 1.0 1.0
angle_coeff    25 class2/p6      103.992000    50.214120   -40.278800     9.231221    -6.611375    11.905265    # mm3->(zn4_o4@zn4o,o4_zn4@zn4o,zn4_o4@zn4o)|Zn4O_benz
angle_coeff    25 class2/p6 bb     7.625640     1.987000     1.987000
angle_coeff    25 class2/p6 ba    18.416640    18.416640     1.987000     1.987000
angle_coeff    10 class2/p6      116.368000    77.191620   -61.918557    14.190688   -10.163332    18.301360    # mm3->(c3_c3@ph,c3_c1o2@co2,o2_c1zn1@co2)|Zn4O_benz
angle_coeff    10 class2/p6 bb 0.0 1.0 1.0
angle_coeff    10 class2/p6 ba 0.0 0.0 1.0 1.0
angle_coeff    14 class2/p6      110.134130    42.675831   -34.232030     7.845403    -5.618856    10.118012    # mm3->(c4_c2h2@me,c4_c2h2@me,h1_c1@me)|butane
angle_coeff    14 class2/p6 bb 0.0 1.0 1.0
angle_coeff    14 class2/p6 ba 0.0 0.0 1.0 1.0
angle_coeff     2 class2/p6      123.103000     5.755200    -4.616481     1.058020    -0.757751     1.364500    # mm3->(o2_c1zn1@co2,zn4_o4@zn4o,o2_c1zn1@co2)|Zn4O_benz
angle_coeff     2 class2/p6 bb 0.0 1.0 1.0
angle_coeff     2 class2/p6 ba 0.0 0.0 1.0 1.0
angle_coeff     9 class2/p6      144.582528    30.574828   -24.525320     5.620789    -4.025594     7.248986    # mm3->(c3_c2h1@ph,c3_c2o1@ph,c3_c2h1@ph)|ph-O-butyl
angle_coeff     9 class2/p6 bb 0.0 1.0 1.0
angle_coeff     9 class2/p6 ba 0.0 0.0 1.0 1.0
angle_coeff    17 class2/p6      107.691286    37.470927   -30.056964     6.888549    -4.933560     8.883982    # mm3->(h1_c1@me,c4_c1h3@me,h1_c1@me)|butane
angle_coeff    17 class2/p6 bb 0.0 1.0 1.0
angle_coeff    17 class2/p6 ba 0.0 0.0 1.0 1.0
angle_coeff    12 class2/p6      107.271015    38.858990   -31.170386     7.143726    -5.116317     9.213077    # mm3->(h1_c1@me,c4_c2h2@me,h1_c1@me)|butane
angle_coeff    12 class2/p6 bb 0.0 1.0 1.0
angle_coeff    12 class2/p6 ba 0.0 0.0 1.0 1.0
angle_coeff     5 class2/p6      117.296000    57.983640   -46.511050    10.659547    -7.634339    13.747340    # mm3->(c3_c1o2@co2,c3_c3@ph,c3_c2o1@ph)|Zn4O_benz
angle_coeff     5 class2/p6 bb 0.0 1.0 1.0
angle_coeff     5 class2/p6 ba 0.0 0.0 1.0 1.0
angle_coeff    18 class2/p6      110.959949    44.958991   -36.063446     8.265133    -5.919465    10.659326    # mm3->(c4_c2h2@me,c4_c1h3@me,h1_c1@me)|butane
angle_coeff    18 class2/p6 bb 0.0 1.0 1.0
angle_coeff    18 class2/p6 ba 0.0 0.0 1.0 1.0
angle_coeff     8 class2/p6      159.969859     8.440703    -6.770633     1.551715    -1.111334     2.001206    # mm3->(c3_c2h1@ph,c3_c2o1@ph,o2_c2@eth)|ph-O-butyl
angle_coeff     8 class2/p6 bb 0.0 1.0 1.0
angle_coeff     8 class2/p6 ba 0.0 0.0 1.0 1.0
angle_coeff     3 class2/p6      126.007089    47.182599   -37.847093     8.673915    -6.212234    11.186522    # mm3->(c3_c2h1@ph,c3_c2h1@ph,c3_c2o1@ph)|ph-O-butyl
angle_coeff     3 class2/p6 bb 0.0 1.0 1.0
angle_coeff     3 class2/p6 ba 0.0 0.0 1.0 1.0
angle_coeff    15 class2/p6      113.161464    65.779678   -52.764571    12.092749    -8.660793    15.595703    # mm3->(c4_c1h2o1@me,c4_c2h2@me,c4_c2h2@me)|butane
angle_coeff    15 class2/p6 bb 0.0 1.0 1.0
angle_coeff    15 class2/p6 ba 0.0 0.0 1.0 1.0
angle_coeff    22 class2/p6      114.447479    32.354254   -25.952671     5.947914    -4.259880     7.670870    # mm3->(c4_c2h2@me,c4_c1h2o1@me,o2_c2@eth)|ph-O-butyl
angle_coeff    22 class2/p6 bb 0.0 1.0 1.0
angle_coeff    22 class2/p6 ba 0.0 0.0 1.0 1.0

dihedral_style opls

dihedral_coeff     5     0.000000     5.972000     0.000000     0.000000    # cos3->(c3_c2o1@ph,c3_c2h1@ph,c3_c2h1@ph,c3_c2o1@ph)|ph-O-butyl
dihedral_coeff    18     0.000000     3.012000     0.000000     0.000000    # cos3->(c3_c3@ph,c3_c1o2@co2,o2_c1zn1@co2,zn4_o4@zn4o)|Zn4O_benz
dihedral_coeff    19     0.000000     0.076000     0.000000     0.000000    # cos3->(o2_c1zn1@co2,c3_c1o2@co2,o2_c1zn1@co2,zn4_o4@zn4o)|Zn4O_benz
dihedral_coeff     9     0.000000     5.972000     0.000000     0.000000    # cos3->(c3_c2h1@ph,c3_c2o1@ph,c3_c2h1@ph,c3_c2h1@ph)|ph-O-butyl
dihedral_coeff     7     0.000000     0.000000     0.000000     0.000000    # cos3->(c3_c2o1@ph,c3_c2h1@ph,c3_c3@ph,c3_c1o2@co2)|Zn4O_benz
dihedral_coeff    33     0.000000     0.000000     0.010079     0.000000    # cos3->(h1_c1@me,c4_c1h2o1@me,o2_c2@eth,c3_c2o1@ph)|ph-O-butyl
dihedral_coeff    25     0.000000     0.000000    -0.052641     0.000000    # cos3->(c4_c2h2@me,c4_c2h2@me,c4_c2h2@me,h1_c1@me)|butane
dihedral_coeff    14     0.000000     5.117273     0.000000     0.000000    # cos3->(h1_c1@ph,c3_c2h1@ph,c3_c2o1@ph,c3_c2h1@ph)|ph-O-butyl
dihedral_coeff    21     0.000000     0.000000     0.514450     0.000000    # cos3->(o2_c2@eth,c4_c1h2o1@me,c4_c2h2@me,h1_c1@me)|ph-O-butyl
dihedral_coeff    10     0.000000     5.000000     0.000000     0.000000    # cos3->(c3_c1o2@co2,c3_c2h1@ph,c3_c2o1@ph,o2_c2@eth)|co2-ph-o-me
dihedral_coeff     8     0.000000     6.281542     0.000000     0.000000    # cos3->(c3_c2h1@ph,c3_c2h1@ph,c3_c2o1@ph,o2_c2@eth)|ph-O-prop
dihedral_coeff    30    -0.370853    -0.236138     1.970124     0.000000    # cos3->(c4_c2h2@me,c4_c2h2@me,c4_c2h2@me,c4_c2h2@me)|butane
dihedral_coeff    11     0.000000     0.000000     0.000000     0.000000    # cos3->(c3_c2h1@ph,c3_c2o1@ph,c3_c3@ph,c3_c1o2@co2)|Zn4O_benz
dihedral_coeff    34     0.803729    -0.768357     1.298183     0.000000    # cos3->(c4_c2h2@me,c4_c1h2o1@me,o2_c2@eth,c3_c2o1@ph)|ph-O-butyl
dihedral_coeff    32     0.000000     0.000000     0.870477     0.000000    # cos3->(h1_c1@me,c4_c1h3@me,c4_c2h2@me,c4_c2h2@me)|butane
dihedral_coeff    31     0.000000     0.000000     0.343076     0.000000    # cos3->(h1_c1@me,c4_c1h3@me,c4_c2h2@me,h1_c1@me)|butane
dihedral_coeff    16     0.000000     3.664689     0.000000     0.000000    # cos3->(c3_c2h1@ph,c3_c2h1@ph,c3_c2o1@ph,c3_c2h1@ph)|ph-O-butyl
dihedral_coeff    13     0.000000     1.902000     0.000000     0.000000    # cos3->(o2_c1zn1@co2,c3_c1o2@co2,c3_c3@ph,c3_c2o1@ph)|Zn4O_benz
dihedral_coeff    24     0.000000     0.000000     0.302052     0.000000    # cos3->(h1_c1@me,c4_c2h2@me,c4_c2h2@me,h1_c1@me)|butane
dihedral_coeff    23    -1.702642    -0.327922     0.811155     0.000000    # cos3->(o2_c2@eth,c4_c1h2o1@me,c4_c2h2@me,c4_c2h2@me)|ph-O-butyl
dihedral_coeff    28     0.000000     0.000000    -0.052641     0.000000    # cos3->(c4_c1h3@me,c4_c2h2@me,c4_c2h2@me,h1_c1@me)|butane
dihedral_coeff     4     0.000000     6.045595     0.000000     0.000000    # cos3->(c3_c2o1@ph,c3_c2h1@ph,c3_c2h1@ph,h1_c1@ph)|ph-O-butyl
dihedral_coeff    27    -0.370853    -0.236138     1.970124     0.000000    # cos3->(c4_c1h2o1@me,c4_c2h2@me,c4_c2h2@me,c4_c2h2@me)|butane
dihedral_coeff     6     0.000000     0.000000     0.000000     0.000000    # cos3->(h1_c1@ph,c3_c2h1@ph,c3_c3@ph,c3_c1o2@co2)|Zn4O_benz
dihedral_coeff    15     0.000000     3.982172     0.000000     0.000000    # cos3->(h1_c1@ph,c3_c2h1@ph,c3_c2o1@ph,o2_c2@eth)|ph-O-butyl
dihedral_coeff     1     0.000000     0.000000     0.000000     0.000000    # cos3->(zn4_o4@zn4o,o4_zn4@zn4o,zn4_o4@zn4o,o2_c1zn1@co2)|Zn4O_benz
dihedral_coeff     3     0.000000     0.000000     0.000000     0.000000    # cos3->(c3_c1o2@co2,o2_c1zn1@co2,zn4_o4@zn4o,o2_c1zn1@co2)|Zn4O_benz
dihedral_coeff    26     0.000000     0.000000    -0.052641     0.000000    # cos3->(c4_c1h2o1@me,c4_c2h2@me,c4_c2h2@me,h1_c1@me)|butane
dihedral_coeff     2     0.000000     0.000000     0.000000     0.000000    # cos3->(c3_c1o2@co2,o2_c1zn1@co2,zn4_o4@zn4o,o4_zn4@zn4o)|Zn4O_benz
dihedral_coeff    17     4.763804     2.750105     0.191432     0.000000    # cos3->(c3_c2h1@ph,c3_c2o1@ph,o2_c2@eth,c4_c1h2o1@me)|ph-O-butyl
dihedral_coeff    20     0.000000     0.000000     0.037991     0.000000    # cos3->(h1_c1@me,c4_c1h2o1@me,c4_c2h2@me,h1_c1@me)|ph-O-butyl
dihedral_coeff    29    -0.370853    -0.236138     1.970124     0.000000    # cos3->(c4_c1h3@me,c4_c2h2@me,c4_c2h2@me,c4_c2h2@me)|butane
dihedral_coeff    12     0.000000     1.902000     0.000000     0.000000    # cos3->(o2_c1zn1@co2,c3_c1o2@co2,c3_c3@ph,c3_c2h1@ph)|Zn4O_benz
dihedral_coeff    22     0.000000     0.000000     0.343642     0.000000    # cos3->(h1_c1@me,c4_c1h2o1@me,c4_c2h2@me,c4_c2h2@me)|ph-O-butyl

improper_style inversion/harmonic

improper_coeff     2     3.563253     0.000000    # harm->(c3_c2h1@ph,c3_c2h1@ph,c3_c2o1@ph,h1_c1@ph)|ph-O-butyl
improper_coeff     4    40.574160     0.000000    # harm->(c3_c1o2@co2,c3_c3@ph,o2_c1zn1@co2,o2_c1zn1@co2)|Zn4O_benz
improper_coeff     3     0.000000     0.000000    # harm->(c3_c2o1@ph,c3_c2h1@ph,c3_c2h1@ph,o2_c2@eth)|ph-O-butyl
improper_coeff     1     0.000000     0.000000    # harm->(c3_c2h1@ph,c3_c1o2@co2,c3_c2h1@ph,c3_c2o1@ph)|xxx

special_bonds lj 0.00 0.00 1.00 coul 1.00 1.00 1.00
Finding 1-2 1-3 1-4 neighbors ...
  special bond factors lj:    0        0        1       
  special bond factors coul:  1        1        1       
     4 = max # of 1-2 neighbors
    12 = max # of 1-3 neighbors
    22 = max # of special neighbors
  special bonds CPU = 0.001 seconds

# ------------------------ MOF-FF FORCE FIELD END --------------------------


change_box all  triclinic
Changing box ...
  triclinic box = (0.0000000 0.0000000 0.0000000) to (51.703312 51.703314 51.703314) with tilt (0.0000000 0.0000000 0.0000000)
kspace_style pppm      1e-06
# ------------------------ MOF-FF FORCE FIELD END --------------------------


min_style		cg
minimize		0.0 1.0e-8 1000 10000
WARNING: Using 'neigh_modify every 1 delay 0 check yes' setting during minimization (../min.cpp:188)
PPPM initialization ...
  using 12-bit tables for long-range coulomb (../kspace.cpp:340)
  G vector (1/distance) = 0.26486809
  grid = 45 45 45
  stencil order = 5
  estimated absolute RMS force accuracy = 0.00036676798
  estimated relative force accuracy = 1.1045109e-06
  using double precision FFTW3
  3d grid and FFT values/proc = 7308 1932
Neighbor list info ...
  update every 1 steps, delay 0 steps, check yes
  max neighbors/atom: 2000, page size: 100000
  master list distance cutoff = 14
  ghost atom cutoff = 14
  binsize = 7, bins = 8 8 8
  1 neighbor lists, perpetual/occasional/extra = 1 0 0
  (1) pair buck6d/coul/gauss/long, perpetual
      attributes: half, newton on
      pair build: half/bin/newton/tri
      stencil: half/bin/3d/tri
      bin: standard
WARNING: Inconsistent image flags (../domain.cpp:814)
Per MPI rank memory allocation (min/avg/max) = 23.62 | 23.96 | 24.27 Mbytes
Step Temp E_pair E_mol TotEng Press 
       0            0   -124222.96    31561.498   -92661.464   -24856.481 
    1000            0   -124708.06    15062.674   -109645.39    27.961505 
Loop time of 46.7038 on 56 procs for 1000 steps with 11840 atoms

98.3% CPU use with 56 MPI tasks x no OpenMP threads

Minimization stats:
  Stopping criterion = max iterations
  Energy initial, next-to-last, final = 
     -92661.4644705915  -109645.390155538  -109645.390465142
  Force two-norm initial, final = 6687.3986 0.78513901
  Force max component initial, final = 216.40464 0.049558549
  Final line search alpha, max atom move = 0.39221513 0.019437613
  Iterations, force evaluations = 1000 1998

MPI task timing breakdown:
Section |  min time  |  avg time  |  max time  |%varavg| %total
---------------------------------------------------------------
Pair    | 34.163     | 38.457     | 42.256     |  35.9 | 82.34
Bond    | 0.90486    | 1.128      | 1.3333     |  12.3 |  2.42
Kspace  | 2.6084     | 6.6252     | 11.158     |  90.8 | 14.19
Neigh   | 0.01921    | 0.01923    | 0.019263   |   0.0 |  0.04
Comm    | 0.35743    | 0.39541    | 0.44258    |   4.5 |  0.85
Output  | 4.5061e-05 | 4.6394e-05 | 7.2002e-05 |   0.0 |  0.00
Modify  | 0          | 0          | 0          |   0.0 |  0.00
Other   |            | 0.07869    |            |       |  0.17

Nlocal:        211.429 ave         229 max         188 min
Histogram: 4 4 0 8 8 8 4 4 4 12
Nghost:        6676.66 ave        6776 max        6511 min
Histogram: 4 0 0 0 16 4 4 16 4 8
Neighs:        103866.0 ave      113666 max       92113 min
Histogram: 4 4 4 4 8 12 0 4 8 8

Total # of neighbors = 5816482
Ave neighs/atom = 491.25693
Ave special neighs/atom = 6.1405405
Neighbor list builds = 3
Dangerous builds = 0

velocity     	all create 330 3204550 dist gaussian mom yes rot no

#-----------------------------------------------------------------------------
variable        N      equal step
variable        T      equal temp
variable		R		equal 0.00198722
variable		sysvol		equal vol
variable		sysmass		equal mass(all)/6.0221367e+23
variable		sysdensity	equal v_sysmass/v_sysvol/1.0e-24
variable		coulomb		equal ecoul+elong
variable		etotal		equal etotal
variable		pe		equal pe
variable		ke		equal ke
variable		evdwl		equal evdwl
variable		epair		equal epair
variable		ebond		equal ebond
variable		eangle		equal eangle
variable		edihed		equal edihed
variable		eimp		equal eimp
variable		lx		equal lx
variable		ly		equal ly
variable		lz		equal lz
variable		Nthermo		equal 0
variable		cella		equal lx
variable		cellb		equal sqrt(ly*ly+xy*xy)
variable		cellc		equal sqrt(lz*lz+xz*xz+yz*yz)
variable		cellalpha	equal acos((xy*xz+ly*yz)/(v_cellb*v_cellc))
variable		cellbeta	equal acos(xz/v_cellc)
variable		cellgamma	equal acos(xy/v_cellb)
variable		p		equal press
variable		pxx		equal pxx
variable		pyy		equal pyy
variable		pzz		equal pzz
variable		pyz		equal pyz
variable		pxz		equal pxz
variable		pxy		equal pxy
variable		sxx		equal -pxx
variable		syy		equal -pyy
variable		szz		equal -pzz
variable		syz		equal -pyz
variable		sxz		equal -pxz
variable		sxy		equal -pxy
variable		enthalpy    equal enthalpy
variable		fmax		equal fmax
variable	        fnorm		equal fnorm
variable		time equal step*dt+0.000001
variable		surfacetension equal 0.5*v_lz*(0.5*(v_sxx+v_syy)-v_szz)


#-------------------------------------------------------------------------------
timestep	    1
thermo_style custom step evdwl ebond eangle edihed eimp pe ke etotal temp press vol v_coulomb enthalpy spcpu
thermo 1000
variable        TEMP        equal 330

fix             1 all npt temp  ${TEMP} ${TEMP} 100  tri  0 0 1000
fix             1 all npt temp  330 ${TEMP} 100  tri  0 0 1000
fix             1 all npt temp  330 330 100  tri  0 0 1000
run		500000
PPPM initialization ...
  using 12-bit tables for long-range coulomb (../kspace.cpp:340)
  G vector (1/distance) = 0.26486809
  grid = 45 45 45
  stencil order = 5
  estimated absolute RMS force accuracy = 0.00036676798
  estimated relative force accuracy = 1.1045109e-06
  using double precision FFTW3
  3d grid and FFT values/proc = 7308 1932
WARNING: Inconsistent image flags (../domain.cpp:814)
Per MPI rank memory allocation (min/avg/max) = 22.54 | 22.94 | 23.16 Mbytes
Step E_vdwl E_bond E_angle E_dihed E_impro PotEng KinEng TotEng Temp Press Volume v_coulomb Enthalpy S/CPU 
    1000   -2580.4643    324.66518    11583.289    3149.4206    5.2991618   -109645.39    11645.637   -97999.753          330    3879.5598    138214.98    -122127.6   -90179.632            0 
    2000   -1768.3596    4904.6474    17066.365    4243.6194    138.46884   -97344.722    11980.415   -85364.307    339.48654   -297.79753    137231.86   -121929.46   -85960.314    41.202899 
    3000    -1809.334    4747.9182    16824.915    4209.8636     160.3515   -97800.957    11341.806   -86459.151    321.39038    219.45595    135933.07   -121934.67   -86024.092     40.98913 
    4000   -1827.4575    4849.0091    16954.444    4289.2382     160.8456   -97536.021    11753.771   -85782.249    333.06417    645.40552    135545.24    -121962.1   -84506.419    40.898057 
    5000    -1911.878    4777.7532    16901.927    4375.6522    164.55338   -97658.263     11531.13   -86127.132    326.75524    -368.1242     134400.5   -121966.27    -86848.69    40.895887 
    6000   -1897.7133    4864.5578    16912.814    4334.4062    157.79256   -97653.039    11580.735   -86072.304    328.16089   -851.73259    133706.29    -122024.9   -87733.156    40.274934 
    7000   -1929.3355    4781.4114    16832.777    4299.1393    168.82563   -97792.112    11758.502   -86033.609    333.19824    340.56522    132879.79   -121944.93   -85373.623    40.150528 
    8000   -1960.6846    4778.7515     16837.03    4395.8619    163.13969   -97749.812    11702.658   -86047.154    331.61578   -113.36537    133063.43   -121963.91    -86267.15    39.891097 
    9000   -1893.7336    4804.2618    16838.343    4383.7591    159.05073   -97680.612    11570.756   -86109.855    327.87811   -806.98659    133027.17   -121972.29   -87675.462    39.929794 
   10000   -1950.4468    4848.8682    16858.352    4412.0029    156.56054   -97654.419    11624.209   -86030.209     329.3928   -873.48946     133093.7   -121979.76   -87725.683    39.534516 
   11000   -1930.1598    4887.5863    16789.004    4462.5198    170.94017   -97621.486    11672.143   -85949.343    330.75108   -78.757406    132356.66   -122001.38   -86101.367    39.381153 
   12000   -1883.6418    4739.2475    16868.764     4440.857    155.30068   -97640.668    11530.601   -86110.067    326.74025   -255.27694    132273.25    -121961.2   -86602.514    39.720413 
   13000   -1958.4459    4833.8417    16844.975    4453.2572    166.28837   -97664.172    11617.784   -86046.387    329.21074   -852.61224    132883.92   -122004.09   -87698.729    39.644376 
   14000   -1920.9872    4890.6612    16904.412    4459.7222    151.59063   -97471.673    11712.948   -85758.726    331.90735   -616.09564    132897.03   -121957.07   -86952.822    39.380688 
   15000   -1913.5026    4695.9987    16739.792    4515.1342    146.21642   -97805.212    11775.917   -86029.295    333.69171    1017.4564    132410.96   -121988.85   -84064.507    39.708454 
   16000   -1945.9256     4671.796    16732.812    4429.9592    152.88623   -97922.721    11609.725   -86312.997    328.98235    834.42715    132989.67   -121964.25    -84694.61    39.808194 
   17000   -1939.9915    4809.7651    16807.862     4503.929    163.14428   -97588.464    11631.495   -85956.969    329.59926   -847.62334    133090.09   -121933.17    -87602.19    40.001583 
   18000   -1913.5218    4822.9286    16714.021    4457.2266    156.95159   -97743.436    11569.359   -86174.077    327.83852   -257.32254    132842.85   -121981.04   -86672.608    39.557087 
   19000   -1922.1298    4855.4384     16895.84    4426.0163    159.57598   -97571.515    11825.072   -85746.442    335.08462    508.38846    132673.47   -121986.26   -84762.758    39.515396 
   20000   -1943.7269      4783.82    16781.072    4470.7218     164.8611    -97696.69    11552.401   -86144.289    327.35799    -329.0181    133450.28   -121953.44   -86784.636    39.123929 
   21000    -1919.706    4761.5192    16863.433      4495.35    160.93506   -97595.709    11702.848   -85892.861    331.62116   -209.03694    132541.42   -121957.24   -86296.926    40.085934 
   22000   -1954.0305    4791.4155    16796.465    4447.8308    148.17574   -97741.966    11709.697   -86032.269    331.81524   -233.96696    132331.19   -121971.82   -86483.805    39.434464 
   23000   -1905.1165    4727.3528    16770.709    4437.8027    163.86572   -97780.734    11574.637   -86206.096    327.98809    739.21658    133091.26   -121975.35   -84771.277    39.708656 
   24000   -1909.1744    4686.9311    16818.292    4476.1918    151.43498   -97777.112    11797.079   -85980.033    334.29138    761.72444    132191.17   -122000.79   -84511.525    39.717545 
   25000   -1960.9162    4786.5773    16775.268    4480.8842    163.76369   -97745.932    11599.622   -86146.309    328.69608   -964.70017    132471.91   -121991.51   -88010.078     39.23174 
   26000   -1884.8962    4860.7655    16767.606    4478.6609    172.74846   -97619.803     11671.83   -85947.973    330.74222    50.315589    132956.12   -122014.69    -85850.41    39.441389 
   27000   -1844.1895    4783.4231    16819.905    4445.2395    160.10977   -97617.973    11733.758   -85884.215    332.49705    958.42354       132570   -121982.46   -84031.201    39.359491 
   28000   -1871.5982    4781.6619    16819.056    4507.5103    160.26674   -97607.575    11494.537   -86113.038    325.71831    -239.3506    132665.66   -122004.47   -86576.131    39.028987 
   29000   -1896.6931    4728.1778    16875.545    4395.2279    151.93158   -97701.336    11692.076   -86009.259    331.31593    530.68727    132514.27   -121955.52   -84983.661    39.727859 
   30000   -1912.5818    4746.1774    16789.936    4442.5641    159.06469   -97716.746    11690.769   -86025.978    331.27888   -247.99077    132754.33   -121941.91   -86506.109    39.829847 
   31000   -1880.9022    4718.1997    16661.201    4501.9101    159.96746   -97849.942    11671.621   -86178.321    330.73631    396.04556       132442   -122010.32   -85413.346    39.208128 
   32000   -1874.2648    4758.6507    16858.703    4455.8081    152.45421   -97596.264    11561.853    -86034.41    327.62583    -391.2487    132923.29   -121947.61   -86792.865    39.052375 
   33000   -1888.7414    4816.0907    16900.514    4460.2686    161.35507   -97563.058    11767.751   -85795.307     333.4603   -587.82577    132734.77   -122012.54    -86933.22    39.605287 
   34000   -1878.8722    4777.0299    16936.551    4464.9046    164.38376   -97543.303    11493.191   -86050.112    325.68015    -643.7398    132655.93    -122007.3   -87295.524    39.262318 
   35000   -1909.5783    4752.5527    16773.502    4463.8268    158.42224    -97779.13    11508.679   -86270.452    326.11903   -160.71724    132619.46   -122017.86   -86581.298    39.130994 
   36000   -1895.5431    4796.1961    16804.759    4441.0216    150.13173    -97671.36    11605.858   -86065.502    328.87279   -29.892111    133099.65   -121967.92   -86123.526    39.946652 
   37000   -1872.1931    4819.5828     16992.56    4487.5822    162.38131   -97427.091    11666.669   -85760.423    330.59596    1094.6141    132448.12      -122017   -83646.044    39.654525 
   38000   -1918.3288    4796.7541    16819.121    4490.8902    156.27289   -97645.599    11601.274   -86044.325    328.74288   -499.63082    133045.88   -121990.31   -87013.778     39.13749 
   39000   -1933.0421    4781.2543    16767.596    4451.1923    149.55168   -97788.039    11515.079    -86272.96     326.3004     574.4148    132653.51   -122004.59   -85161.688     40.07816 
   40000   -1916.1924    4741.2503    16816.155    4465.3109    161.92297   -97724.407    11614.949   -86109.458     329.1304    14.727867    132955.04   -121992.85   -86080.901    39.627352 
   41000   -1901.1678    4849.1225    16892.585    4477.8473    153.96884   -97542.067    11640.934   -85901.133    329.86672   -925.89215     132934.6   -122014.42   -87696.173    39.176368 
   42000   -1877.7524    4743.1282     16760.92    4428.8533    137.84248   -97807.552     11684.79   -86122.762    331.10946    506.48238    132442.44   -122000.54   -85144.472    39.501251 
   43000   -1946.3977    4803.9047     16711.74    4544.7371    169.79901   -97750.365    11658.904   -86091.461    330.37594    449.44218    132905.54   -122034.15   -85220.312    40.064263 
   44000   -1879.1986     4837.597    16815.602    4474.0482    169.60906   -97561.773     11693.86   -85867.913    331.36648   -110.03119    132916.41   -121979.43   -86081.203     39.99274 
   45000   -1866.4455    4604.6878     16748.01     4418.286    141.93008   -97917.111    11642.238   -86274.873    329.90367    2443.4813    132727.72   -121963.58   -81545.032    39.752806 
   46000   -1915.8645    4925.4492    16831.381    4510.9767    159.63403   -97507.854     11547.26   -85960.594     327.2123   -753.93849    133472.85   -122019.43   -87428.184    39.634584 
   47000   -1940.7377    4824.7101    16884.953    4494.2159    159.61668   -97575.628    11493.397   -86082.232    325.68598   -512.45641    132993.36   -121998.39   -87076.178    39.193049 
   48000   -1969.4769    4714.7669    16840.598    4513.7178    160.91032   -97733.572    11567.957   -86165.615    327.79877    142.40495    132481.94   -121994.09   -85890.473    39.736439 
   49000   -1862.9228    4773.9708    16906.283     4515.521    159.31429   -97485.654    11458.574   -86027.079    324.69924    51.644476    132817.67   -121977.82   -85927.043    39.881165 
   50000   -1854.3234    4721.3588    16835.193     4506.668     150.9129   -97687.937    11662.929   -86025.009    330.48998     1633.837    132537.93   -122047.75   -82866.916    39.318672 
   51000   -1883.6418    4769.8461    16853.809    4502.4787    166.51269   -97564.861    11818.868   -85745.993     334.9088   -234.07879    133225.93   -121973.86   -86200.799     38.91831 
   52000    -1856.039    4779.3072    16749.653    4484.6579    154.26471   -97694.728    11749.932   -85944.796    332.95538    158.06415    133401.63   -122006.57   -85637.278    39.147047 
   53000    -1921.698    4735.6272    16769.668    4533.8877    154.59195   -97651.251    11417.943   -86233.308    323.54788    241.86695    132875.06   -121923.33   -85764.607    40.421945 
   54000   -1878.1807     4747.762     16851.18    4456.7246    153.86362   -97622.074    11564.013   -86058.061    327.68703   -1008.2719    133266.21   -121953.42   -88017.689     40.23146 
   55000   -1873.1865    4805.7965    16816.923    4456.1085    154.82379   -97634.605     11710.46   -85924.145    331.83687   -724.59384    133164.22   -121995.07   -87331.352    39.627376 
   56000   -1871.0642    4720.1909    16781.093    4480.8114    168.85488   -97699.352      11620.1   -86079.253    329.27634     906.7843    132074.98   -121979.24   -84332.625    39.617964 
   57000   -1869.7932    4748.3253    16789.591    4495.5225    139.04711   -97738.686    11605.581   -86133.104    328.86494    967.96258    133072.69   -122041.38   -84254.551    40.334505 
   58000   -1872.3587    4874.0703     16843.46    4467.3989    142.43919   -97516.046    11597.028   -85919.019    328.62256   -540.10187    133188.19   -121971.06    -86968.12    40.010827 
   59000   -1909.8689    4685.0949     16703.21    4514.9995    157.03561   -97861.843    11449.118   -86412.725    324.43127   -151.85932    132476.49   -122012.31   -86706.123    39.788557 
   60000   -1843.3687    4807.1043        16932    4508.8422    161.50334   -97455.159    11715.682   -85739.478    331.98483    265.35703    133094.75   -122021.24   -85224.406    39.597971 
   61000   -1895.8712    4754.0652    16858.385    4410.7296    166.06472    -97653.54     11603.39   -86050.149    328.80285    499.61421    133213.03   -121946.91   -85079.511    38.909888 
   62000   -1845.1009     4861.928      16863.5    4433.6312    159.03226   -97513.168    11717.722   -85795.446    332.04265   -1165.0093    133723.96   -121986.16   -88067.478    39.172421 
   63000    -1889.462    4928.5269    16779.005    4448.3425    156.54126   -97578.838    11655.223   -85923.614    330.27164   -117.27962    133064.94   -122001.79   -86151.209    39.527524 
   64000   -1952.1612    4746.3073    16826.545    4498.9098     155.2529   -97700.257     11497.37   -86202.887    325.79858    337.01905    132859.49   -121975.11   -85549.872    39.841377 
   65000   -1899.6994    4786.4991    16903.999    4497.7122    156.69141   -97560.264     11684.53   -85875.734    331.10209    82.815624    132707.78   -122005.47   -85715.452    38.820668 
   66000   -1894.7253    4585.5712    16835.159    4536.5014    154.11209   -97723.786     11688.86   -86034.926    331.22478    -267.6709    132976.57    -121940.4   -86554.027    39.816505 
   67000   -1839.6165    4752.4891    16881.255    4469.5404    146.74953   -97579.458    11612.237   -85967.221    329.05354    71.763166    132725.56   -121989.88   -85828.312    39.282505 
   68000   -1835.9083    4704.0633    16844.731    4479.1403    162.22504   -97632.645     11803.09   -85829.556    334.46169   -296.95051    132965.38    -121986.9   -86405.391    39.870978 
   69000   -1824.2176    4706.1414    16847.526    4415.7483    146.37563   -97704.167    11675.594   -86028.573    330.84888   -429.70426    133485.62   -121995.74     -86865.1     39.37567 
   70000    -1904.993    4756.3395    16741.448    4428.5266    147.62439   -97787.384    11660.633   -86126.751    330.42493   -650.20978     133297.3   -121956.33   -87390.762    39.108035 
   71000   -1827.6781     4856.488    16718.437    4522.6594    152.13852   -97610.631    11671.873   -85938.757    330.74344      143.888    133355.77   -122032.68   -85658.916    39.389952 
   72000   -1846.4109    4779.9214    16766.196     4418.525    153.85023   -97693.006    11452.595   -86240.411     324.5298   -290.26387    132604.78   -121965.09   -86801.753    39.921564 
   73000   -1825.7599    4824.7449    16882.138    4533.2819    165.85324   -97406.312    11566.494   -85839.819    327.75732    -73.30354    133783.91   -121986.57   -85982.841    39.915664 
   74000   -1838.1822     4703.667    16844.986    4491.7028    157.95486   -97641.496    11678.418   -85963.077    330.92891    5.6106648    133357.39   -122001.62   -85952.165    40.096649 
   75000   -1823.5715    4783.6967    16750.454    4500.7583    155.62565   -97636.992    11492.268   -86144.723    325.65401    504.55659    133018.77   -122003.96   -85165.913    39.438136 
   76000   -1875.5975    4705.8931     16760.32    4494.2599    160.43794   -97735.303     11792.54   -85942.763    334.16275    329.19039    133442.95   -121980.62   -85302.116    39.594629 
   77000   -1830.7468    4796.0809    16745.042    4408.6382    166.17386   -97701.071    11709.872   -85991.198    331.82022     406.1623    132784.67   -121986.26   -85204.654    40.134526 
   78000   -1862.2817    4806.2896    16863.336    4526.2836    162.21923   -97510.208    11650.966   -85859.242      330.151    86.759151    132466.79   -122006.06   -85691.633    39.107799 
   79000   -1817.8504    4737.0309    16806.722    4451.2214    167.28136   -97644.545    11622.072   -86022.473    329.33224   -347.49177    132685.21   -121988.95   -86694.897     39.66134 
   80000   -1827.2699    4684.2819    16684.994    4409.0322     166.9594   -97849.793    11621.674   -86228.119    329.32095   -41.441544    132893.15   -121967.79   -86308.438    39.882934 
   81000   -1849.3152    4886.7867    16925.881    4405.7022    167.83359   -97480.927     11463.12   -86017.807    324.82804   -1156.8228    133472.51   -122017.82   -88269.632    39.336658 
   82000   -1907.0932     4775.161    16861.766    4461.4081    159.92369   -97621.747    11703.279   -85918.468    331.63338   -48.329845    132605.79   -121972.91   -86011.934    39.242747 
   83000   -1901.4233    4740.3214    16902.421    4505.1127    145.55469   -97609.414     11698.12   -85911.294     331.4872   -15.672819    132609.81    -122001.4   -85941.605    39.222954 
   84000   -1902.7691      4749.68    16858.833    4443.9001    165.54911   -97710.153    11526.702    -86183.45    326.62976    -140.3368    132717.46   -122025.35   -86455.079    38.904843 
   85000   -1832.0938    4757.3161    16889.619    4436.4488    159.09477   -97560.808    11579.671   -85981.137    328.13072    1031.5417    132826.66   -121971.19   -83982.896    39.772021 
   86000   -1944.9698    4784.0308    16831.564    4427.8232    143.40821   -97754.745    11614.895    -86139.85    329.12885   -718.90172    133374.94    -121996.6   -87538.212    39.998421 
   87000   -1871.7506     4780.106    16856.463    4440.0523    156.58692   -97601.414    11754.989   -85846.426    333.09867    231.47939     132779.3   -121962.87   -85398.177     39.28442 
   88000   -1835.2452    4823.0486    16745.749    4471.9321    168.18404   -97643.401    11775.492   -85867.908    333.67968   -491.92968    132720.22   -122017.07   -86820.082    39.811114 
   89000   -1821.9653    4747.6346    16929.719    4501.6121    147.61713   -97511.193    11524.587   -85986.606    326.56981   -147.03145    132975.43   -122015.81   -86271.745    39.423452 
   90000   -1881.9487    4666.9467    16839.893    4467.1135    175.64319   -97735.809    11635.841   -86099.969    329.72239    537.21586    132954.98   -122003.46   -85058.301    39.415624 
   91000   -1901.4436    4720.3145    16939.094    4438.0663    145.86412   -97674.422    11661.411    -86013.01    330.44699    406.00763    132785.18   -122016.32   -85226.762     39.51484 
   92000   -1831.5668    4746.3906    16782.277    4462.3827    153.66632    -97658.87    11552.179   -86106.691     327.3517    999.50984    132685.41   -121972.02   -84172.559    39.682705 
   93000   -1832.9864    4832.2938    16763.245    4477.0713    167.19653   -97569.899    11582.431   -85987.468    328.20893    17.607641    133508.02   -121976.72   -85953.185    40.130556 
   94000   -1877.1475    4837.5541    16826.567    4387.3862    169.42358   -97644.558    11747.992   -85896.566     332.9004    -560.3543    133433.16   -121988.34   -86987.008    39.523064 
   95000   -1816.3502    4789.6276    16696.555    4409.3091    165.49952   -97732.667    11602.133   -86130.533    328.76724   -259.64957    132795.62   -121977.31   -86633.393    39.868129 
   96000   -1880.2459     4779.714    16877.188    4454.9602    155.04192   -97566.864    11634.874    -85931.99      329.695    382.95384    133443.99   -121953.52   -85186.707    39.851914 
   97000   -1821.0686    4720.5271    16706.462    4435.9595    139.72117   -97766.958    11666.175   -86100.784    330.58197   -221.25206    133182.76   -121948.56   -86530.529      40.2933 
   98000   -1821.1705    4859.6564    16762.804     4473.432     142.5393   -97618.704    11714.764    -85903.94    331.95882    796.38746    133094.16   -122035.97   -84358.118    40.240877 
   99000   -1869.3536    4810.4011    16929.388    4447.2426    159.43817   -97492.179    11495.654   -85996.525    325.74995   -1452.6153    133729.56    -121969.3   -88829.573    40.102904 
  100000   -1904.8959    4924.5648    16686.621    4465.1331    149.33753   -97691.718    11770.071   -85921.646    333.52606    274.10758    133467.64   -122012.48   -85388.099     39.36817 
  101000   -1780.4077    4718.5987    16810.459    4460.3236    149.41589   -97648.342    11749.592    -85898.75    332.94573    670.80307    132767.64   -122006.73   -84599.888    39.950551 
  102000   -1811.4999    4645.0198     16834.71    4423.6678    165.60725   -97715.915    11459.719   -86256.196    324.73166   -723.64997     133490.1   -121973.42    -87665.01    40.118901 
  103000   -1782.5082    4709.0803    16842.884    4386.8834    169.33503    -97683.57    11572.289   -86111.281    327.92155    300.49267    133608.46   -122009.24   -85525.758    39.709532 
  104000   -1781.8595    4718.9698    16806.347    4391.4308    177.15686   -97683.042    11603.864   -86079.177    328.81628    197.52942    133008.84   -121995.09    -85696.01    39.486151 
  105000   -1836.0679     4665.604    16872.037    4475.6908    154.14043    -97633.45    11654.594   -85978.856     330.2538     786.3651     133081.6   -121964.85   -84452.632    40.023736 
  106000   -1876.6379    4684.7427    16845.822    4357.9908    154.96461   -97810.056    11734.272   -86075.784    332.51162    79.246041    133708.99   -121976.94   -85921.254     39.77002 
  107000    -1825.474    4803.5967    16802.028    4496.1086    174.99378   -97543.552    11607.798   -85935.754    328.92774    -130.2125    133201.98    -121994.8   -86188.707    40.096253 
  108000   -1847.4223    4847.7933    16824.724    4428.0098    156.03504   -97557.776    11600.077   -85957.699    328.70895    246.09407    133067.77   -121966.92   -85480.115    40.069431 
  109000   -1799.4069    4779.5852    16742.391    4490.0476    171.42583   -97576.225    11611.966   -85964.259    329.04585    921.07574     133380.5   -121960.27   -84172.566    39.248464 
  110000   -1853.6679    4791.5682    16715.731    4486.2679    167.54451   -97678.719    11586.877   -86091.842    328.33492    560.32134     133114.4   -121986.16    -85004.07    39.556932 
  111000   -1819.9908     4824.098    16827.277    4439.0946    155.74124   -97572.546    11508.136    -86064.41    326.10365    173.78311    132490.98   -121998.77   -85728.618    39.834004 
  112000   -1890.3746    4659.3733    16827.486    4561.3977    184.35531   -97646.854     11617.26   -86029.594    329.19587   -263.69802    132958.82   -121989.09   -86540.922    39.888564 
  113000   -1836.8059    4737.1615    16836.255    4441.3464    174.65286   -97645.164    11677.956   -85967.208    330.91582    352.58283    133023.96   -121997.77   -85283.191     39.52569 
  114000   -1834.9199    4875.4128    16859.962     4408.392    150.86491   -97532.758     11547.83   -85984.928    327.22844   -1159.8583     133655.9   -121992.47   -88245.764    40.013665 
  115000   -1809.3145     4810.732    16797.113     4461.237     144.7411   -97607.755    11678.307   -85929.448    330.92574    935.96756    132841.05   -122012.26   -84116.151    39.940339 
  116000   -1823.5761    4711.1545    16824.024    4424.7564    146.44587    -97706.62    11520.979   -86185.641    326.46758     -1287.68    133545.37   -121989.43   -88693.555    40.155156 
  117000   -1839.1918     4877.421    16810.264    4423.3737    147.07031   -97589.392    11709.985   -85879.408    331.82339     -37.5159       133677   -122008.33   -85952.546     40.38958 
  118000   -1783.1504    4822.3848    16710.663    4446.6803    147.18109   -97665.966    11808.402   -85857.564    334.61222    934.21638    133090.18   -122009.72   -84044.266    39.502906 
  119000   -1892.8996    4639.8952    16753.231    4491.3819    155.09192   -97829.456    11695.051   -86134.405    331.40023     942.2352    133547.35   -121976.16    -84299.26     39.75698 
  120000   -1776.4826    4814.8322    16795.338    4441.9029    156.47486   -97575.192    11713.404   -85861.788    331.92028   -53.742393     133646.2   -122007.26   -85966.537    39.683744 
  121000   -1888.1851     4720.947    16794.864    4509.2919    156.41736   -97673.687    11485.632   -86188.055    325.46595   -558.70995     132829.6   -121967.02   -87270.379    39.844112 
  122000    -1818.523    4783.1121    16818.835    4408.1298    143.57389   -97661.941    11800.891    -85861.05    334.39939    394.53901    133057.43   -121997.07   -85095.445    39.925371 
  123000   -1801.1951    4746.3232    16780.946    4486.6422     146.3927   -97616.427    11716.191   -85900.235    331.99928    296.60795    133336.66   -121975.54   -85323.458    39.048652 
  124000   -1782.8616    4842.1958    16730.194    4364.5727    153.87523   -97655.811    11544.739   -86111.072    327.14086   -87.615021    132832.52   -121963.79   -86280.802    39.444873 
  125000   -1842.2761    4892.3545    16837.638     4459.009    157.95549   -97500.755    11847.865   -85652.891    335.73047     -694.949    133429.17   -122005.44   -87005.211      39.7389 
  126000   -1822.1066    4700.6397    16774.607    4352.3621    159.94395   -97756.604    11691.473    -86065.13    331.29884    381.92493    133110.57   -121922.05   -85323.707    39.757299 
  127000   -1785.6141    4791.2463    16826.012    4396.0995    160.55571   -97591.503    11712.225   -85879.278    331.88689   -297.64905    133744.49    -121979.8    -86459.85    39.495784 
  128000   -1761.4349    4647.9837    16831.764    4379.6807    167.46835   -97682.619    11638.176   -86044.443    329.78856    679.72302     133123.7   -121948.08    -84724.78     39.99784 
  129000   -1842.8102     4740.719    16816.359     4438.507     163.1474   -97632.089    11655.537   -85976.552    330.28053    142.80704    132581.88   -121948.01   -85700.425    40.338563 
  130000   -1761.8842    4907.7851    16853.796      4361.82    190.04672    -97438.78    11566.631   -85872.149    327.76121   -473.28795    133489.69   -121990.34   -86793.551    39.913028 
  131000   -1852.3109    4788.1172    16761.799    4419.0043    172.53609   -97698.937    11497.806   -86201.131    325.81093    898.72994    133221.92   -121988.08   -84454.984    40.588585 
  132000   -1846.9215    4718.4351    16845.683    4521.3617    170.44861   -97576.297    11597.861   -85978.436    328.64617    523.70416    132879.59    -121985.3   -84963.543    39.719828 
  133000     -1848.84    4882.0983    16887.001     4475.583      172.453   -97469.349    11731.541   -85737.808    332.43423   -373.79568    133257.22   -122037.64    -86464.25    39.695212 
  134000    -1850.055     4733.463    16768.989    4419.7814    168.38513   -97749.761    11715.826   -86033.935    331.98893   -57.313548    132407.42   -121990.32   -86144.609    39.634539 
  135000   -1878.3186    4815.1096    16811.865    4466.3444    161.67024   -97622.386    11560.819   -86061.568    327.59651   -28.236446    132883.26   -121999.06   -86116.289    39.685474 
  136000   -1850.5241    4789.9054    16855.962    4416.0026    153.95229   -97630.846    11699.692   -85931.154    331.53173    168.29828    133119.92   -121996.14   -85604.417    39.416433 
  137000   -1813.9407    4759.3057    16864.693    4389.3362    149.42579   -97627.962    11512.931    -86115.03    326.23954   -40.325846     132593.6   -121976.78    -86193.01    39.583449 
  138000    -1891.368    4835.7802    16747.253    4417.7612    167.28417   -97716.364    11690.204    -86026.16    331.26286    415.83067    133071.41   -121993.07   -85219.153    40.136179 
  139000   -1861.2548    4753.9832    16841.866    4377.3278    152.89329   -97740.868    11638.864   -86102.004    329.80806    761.03559    132485.36   -122005.68    -84631.56    40.005673 
  140000   -1843.0008    4795.1281    16813.443     4406.949    148.77153   -97629.041    11617.827   -86011.214    329.21193    638.37505    132561.96   -121950.33   -84777.056    39.521204 
  141000   -1796.4951     4730.452    16877.548    4487.5342    154.70867    -97517.99     11616.44    -85901.55    329.17265   -894.72169    133127.93   -121971.74   -87638.683    40.141533 
  142000   -1791.5971    4717.5428    16794.254    4465.0529     161.8407   -97665.816    11731.581   -85934.235    332.43537    63.543888    133302.68   -122012.91     -85810.7    39.539574 
  143000   -1841.6008    4778.1783     16793.79    4461.3748    153.12881   -97653.327    11661.795   -85991.532    330.45786    338.43945    133002.55    -121998.2   -85335.059    39.517649 
  144000   -1829.2399    4729.1465    16819.584    4425.1815    164.77636   -97686.422    11646.012   -86040.411     330.0106    311.55399    132487.56   -121995.87   -85438.428    40.468294 
  145000   -1818.5509    4817.7285    16720.114    4411.3015    164.75017   -97725.045    11542.516   -86182.529    327.07786    -241.5333    132620.91   -122020.39   -86649.689    39.602554 
  146000   -1798.4046    4702.4066    16837.647    4376.1683    168.69072   -97644.565    11705.324   -85939.241    331.69134    336.39653     133357.9   -121931.07   -85284.987    40.034402 
  147000   -1829.5644    4763.1416     16755.83    4456.4251    173.94975   -97627.884    11657.151   -85970.733    330.32626   -1025.9358    133570.32   -121947.67   -87969.241    39.679172 
  148000   -1830.4601    4736.2861    16851.545    4363.2302    147.34964   -97678.983      11521.1   -86157.883    326.47101   -95.237318    132619.64   -121946.93   -86342.084    39.495272 
  149000   -1829.1478    4778.5845    16734.134    4392.6456    150.49706   -97747.501    11669.621    -86077.88    330.67962    650.23954    133187.89   -121974.21   -84814.849    38.985341 
  150000   -1777.9216    4842.0922    16788.846    4359.8407    173.51612   -97601.924    11558.974    -86042.95    327.54423   -283.13846    133279.41    -121988.3   -86593.298     38.96965 
  151000   -1869.5436    4663.9253    16879.653    4437.1925    170.15936   -97736.887    11525.329   -86211.558    326.59084   -14.215442    133531.27   -122018.27   -86239.242     39.58245 
  152000   -1864.4739    4787.8673    16792.087    4449.7995    172.37783   -97633.716    11684.395   -85949.321    331.09828    89.382599    132645.74   -121971.37    -85776.41    39.476038 
  153000   -1845.3986    4654.6603    16869.983     4453.371    150.81133   -97716.758    11722.937   -85993.821    332.19043    850.53553    132897.47   -122000.18   -84345.336    39.902231 
  154000   -1807.7251    4773.7199    16714.725    4474.1331    150.49472   -97607.594     11749.36   -85858.235    332.93915   -11.807081    133575.74   -121912.94   -85881.236    39.707215 
  155000    -1781.243    4802.8439    16741.213    4440.8665    146.22946   -97648.947    11582.858   -86066.089    328.22103    956.28292    133449.08   -121998.86   -84204.954    39.525514 
  156000   -1816.2834    4944.8179    16896.136    4431.6016    154.71304   -97369.652    11680.776   -85688.875    330.99573   -638.33295    133222.94   -121980.64   -86929.105    39.743031 
  157000   -1927.9966    4808.9306    16795.127    4541.5735    170.60239   -97617.321    11643.633   -85973.688     329.9432    67.957414    132950.72   -122005.56   -85841.922    39.778594 
  158000   -1854.1995     4744.797    16873.747    4464.9852    163.18194   -97595.188    11338.761   -86256.427     321.3041    79.986581    133597.42    -121987.7   -86100.583    40.125474 
  159000   -1822.5972    4808.8151    16766.039    4397.3336    160.15409    -97650.78    11668.732   -85982.047    330.65444   -116.81105    133289.88   -121960.52   -86209.116    39.955122 
  160000   -1802.4072    4864.3059    16719.667    4461.7087    168.16442   -97586.324    11717.733   -85868.591    332.04296    1121.4928    133178.13   -121997.76   -83690.353    39.454346 
  161000    -1802.234    4682.8941    16716.245    4429.0176    161.91401   -97784.704    11714.068   -86070.635    331.93912    682.13906    133627.14   -121972.54   -84741.272     39.80461 
  162000   -1835.4088    4850.1114    16807.464    4450.9609    149.05728   -97564.955    11560.772   -86004.183    327.59519   -579.94006     134084.9   -121987.14    -87138.25    39.527926 
  163000   -1773.6501    4845.9854    16815.857    4381.3295    155.45272   -97540.031    11661.337   -85878.694    330.44487    374.10294    133243.18   -121965.01   -85151.732    39.295478 
  164000    -1820.792    4873.7714    16620.112    4384.6789    151.15203   -97792.507    11706.786   -86085.721    331.73275    241.20899    132748.55   -122001.43    -85618.74    39.863099 
  165000   -1846.8364    4811.9802    16850.944    4471.2103    171.47255    -97523.06    11575.867   -85947.193    328.02293   -690.55211    133425.31   -121981.83   -87290.919    39.730238 
  166000   -1850.5858    4858.2869    16783.988    4429.1336       149.36   -97603.609    11563.308   -86040.301    327.66705   -446.27335    132823.75   -121973.79   -86904.776    40.041222 
  167000    -1783.596    4742.4092     16882.67    4394.3563    171.68179   -97562.652    11684.385   -85878.267    331.09799    534.89628    132873.91   -121970.17   -84841.729    39.353677 
  168000   -1865.6756    4679.7732    16929.439    4446.8859    154.64276   -97646.635     11629.37   -86017.265    329.53903    948.38548    132918.39    -121991.7   -84178.841     39.69049 
  169000    -1887.599    4750.7281    16769.465    4394.7059    160.74707   -97785.061    11547.909   -86237.152    327.23068   -185.74239    133238.65   -121973.11   -86598.077    39.959379 
  170000    -1865.919    4792.9049    16828.198    4435.9151    152.41644   -97622.829    11691.805   -85931.024    331.30825   -210.53927     132968.4   -121966.34   -86339.304    39.563057 
  171000   -1924.0736    4821.3716    16701.453    4414.8457    152.72109   -97849.825    11635.718   -86214.107    329.71892   -281.60933    132844.54   -122016.14   -86759.698     40.05549 
  172000   -1845.6596    4690.0793    16791.392    4459.7588    162.88857   -97728.145    11768.951   -85959.194    333.49432    276.34956    133194.82    -121986.6   -85422.382    39.631602 
  173000   -1846.1513    4726.0064    16843.732    4369.2531    171.85669   -97723.763    11546.229   -86177.534     327.1831    95.996485    132750.01   -121988.46   -85991.682    39.485848 
  174000   -1901.1204    4811.1881    16703.004    4459.7852    148.74944   -97806.688    11696.161   -86110.527    331.43168   -233.83973    132537.64   -122028.29   -86562.522    39.491155 
  175000   -1946.4216    4853.8323    16810.553    4526.2506    152.28918   -97576.215    11519.213   -86057.002    326.41754   -1849.8285    133242.33   -121972.72   -89651.594    39.165432 
  176000    -1891.645     4823.177    16778.662    4471.1747    171.20156   -97602.417    11740.172   -85862.245    332.67881   -550.37715    133505.57   -121954.99   -86933.853    39.725842 
  177000   -1894.1173     4853.957    16761.769    4448.6971    154.61747   -97636.216    11555.032   -86081.184    327.43252   -65.693824    132779.63   -121961.14   -86208.397    39.894809 
  178000   -1849.7814    4819.1095    16760.232     4462.537    169.52668   -97650.627    11531.553   -86119.075    326.76721   -280.09831     133000.9   -122012.25   -86662.376    39.496084 
  179000   -1855.0084     4777.517     16908.18    4430.5298    141.30914   -97544.377    11685.889   -85858.488     331.1406   -288.80839    133186.87    -121946.9   -86419.467    39.552501 
  180000   -1823.0584    4794.0077     16793.28    4377.3112    153.77563   -97671.486    11695.848   -85975.638    331.42282    701.23568    133079.48    -121966.8    -84614.66     39.79382 
  181000   -1834.7527    4883.7554    16793.833    4429.4181    166.99476   -97567.699     11549.54   -86018.159     327.2769   -166.71759    132838.85   -122006.95   -86341.144     40.08516 
  182000   -1834.8774     4852.131    16810.398    4385.9228    154.12914   -97639.131    11699.006   -85940.125    331.51231   -101.43012    133144.31   -122006.83   -86137.079    39.544129 
  183000   -1862.5891    4786.1572    16795.308    4346.5098    146.50802   -97787.728    11655.213   -86132.515    330.27134   -196.67575    132226.72   -121999.62   -86511.783    39.493658 
  184000   -1860.7647    4921.0937    16893.939    4359.2704    163.68705   -97483.348    11812.425   -85670.923    334.72623    218.68063    132323.07   -121960.57   -85248.914     39.83104 
  185000   -1901.9545    4832.9664    16890.829    4426.7056    149.80099   -97607.336    11580.333   -86027.002     328.1495   -863.99549    132971.02   -122005.68   -87702.502    40.285099 
  186000   -1883.7998     4808.877    16800.594    4363.3499    154.71987   -97721.802    11884.371   -85837.431    336.76494   -358.61377    132446.47   -121965.54   -86530.128    39.579218 
  187000   -1879.3555    4723.4136    16740.839    4365.9844    154.36838   -97847.677    11771.406    -86076.27    333.56389     -41.0377    132696.88   -121952.93   -86155.689    39.666298 
  188000   -1822.5053    4798.1028    16801.698    4405.6561    159.98502   -97642.964    11599.978   -86042.987    328.70615    465.64927    133579.56    -121985.9   -85135.845    39.437996 
  189000   -1858.7858    4870.0479    16833.594    4380.5009    151.45318   -97605.682    11600.375   -86005.307     328.7174   -192.03479    132343.78   -121982.49   -86375.953    39.163175 
  190000   -1876.4814    4782.1695     16822.87    4378.7206     150.4826   -97694.194    11719.441   -85974.753    332.09136    62.801428    133280.66   -121951.96   -85852.682    38.926869 
  191000   -1811.2693    4846.4794    16809.768    4398.7112    173.64258   -97555.679    11645.033   -85910.646    329.98287   -336.92771    133789.91   -121973.01   -86568.056    39.602215 
  192000   -1829.4152    4839.6833    16867.347    4340.2383    163.11545   -97611.541    11719.555   -85891.986    332.09458   -161.42187    133369.88   -121992.51   -86205.961    39.633495 
  193000   -1834.9083    4768.2183    16775.045     4376.767     160.0593   -97664.197    11704.951   -85959.246    331.68077    198.81684    133471.98   -121909.38   -85572.238     40.26835 
  194000   -1809.9703    4783.3855     16769.18    4379.6338    167.62193   -97648.149    11568.056   -86080.093     327.8016   -86.399828    133311.32      -121938   -86248.073    39.823509 
  195000    -1773.324    4961.4549    16867.566    4392.9495    147.26579   -97363.853    11620.862   -85742.991    329.29794   -521.99598    133024.62   -121959.76   -86755.678    39.940321 
  196000   -1809.3516     4816.789    16784.392    4372.6043    154.35142   -97685.548    11606.439   -86079.109    328.88926    554.69302    132822.97   -122004.33    -85004.62    39.471966 
  197000   -1857.1786     4833.955     16735.17    4392.3613     156.9348   -97688.392    11588.428   -86099.964    328.37888   -401.73485    133695.59   -121949.63   -86883.272     39.51129 
  198000   -1768.6021    4771.5841     16823.33    4388.7964    141.10247   -97625.205    11811.573   -85813.632    334.70207    436.20092     133165.6   -121981.42   -84966.494    40.213036 
  199000   -1848.7325    4810.8979    16862.047    4413.5074    152.28787    -97544.39    11620.282   -85924.108    329.28152    227.19751    133648.52    -121934.4   -85481.271    39.775529 
  200000   -1815.2307    4723.7365    16687.677     4374.431    158.32783    -97822.02    11582.315   -86239.705    328.20565    375.67126    133589.86   -121950.96   -85507.795    39.286224 
  201000   -1822.0109    4774.8784    16760.802    4347.1473    154.28948   -97754.133    11733.396   -86020.737    332.48679    273.72642    132977.71   -121969.24   -85489.888    39.607857 
  202000   -1830.8468    4868.9088    16842.323    4413.1973       146.46   -97578.358    11631.507   -85946.851    329.59959    278.80362    132561.12    -122018.4   -85407.849    38.755263 
  203000   -1788.4965    4699.1598    16781.997    4363.6373    159.38766   -97766.384    11565.457   -86200.927    327.72793    529.93156       133349   -121982.07   -85170.338    39.222776 
  204000   -1751.6256    4858.5799    16815.271     4380.847    162.69716   -97469.467    11568.759   -85900.708    327.82152   -226.27552    133170.51   -121935.24    -86340.17       39.387 
  205000   -1821.2826    4793.2663     16770.39     4344.587     170.4809   -97718.518    11655.843   -86062.676    330.28919    1429.6635    133438.95   -121975.96    -83280.45    39.458391 
  206000   -1818.9137     4714.645    16788.439    4365.2945    156.53474   -97744.405    11591.492   -86152.913    328.46569   -315.29269    133904.53    -121950.4   -86768.636    39.854485 
  207000   -1840.7893    4726.2613    16777.644    4417.3482    133.14986   -97751.407    11613.177   -86138.229    329.08019    1045.4372    132842.58   -121965.02   -84112.828    40.209287 
  208000   -1851.4952    4754.7884    16856.089    4414.1078    167.16437   -97584.671     11604.57   -85980.101    328.83627   -973.90362     132948.8   -121925.32   -87868.424     39.52712 
  209000   -1786.1317    4748.0424    16700.315    4380.4756    165.23925   -97778.915    11555.449   -86223.466    327.44436    367.35567    133124.46   -121986.86   -85510.251    39.831305 
  210000   -1823.7248     4827.089    16818.232    4412.7854    149.94995   -97577.724    11684.132   -85893.592    331.09082   -193.84116    132791.69   -121962.06    -86268.99     40.19983 
  211000   -1790.7103    4784.8498     16825.31    4444.9939    163.37021   -97526.657     11686.47   -85840.188    331.15705   -119.53575     132631.9   -121954.47   -86071.406    39.749949 
  212000   -1838.9615    4841.4369    16791.339     4427.241    172.59632    -97607.42    11522.465   -86084.955    326.50968   -435.80032    133116.64   -122001.07   -86931.005    39.512756 
  213000   -1811.6243    4850.0172    16672.641    4420.3447    140.45296   -97725.953    11635.132    -86090.82    329.70233   -298.27517    133336.88   -121997.78   -86670.841     39.69591 
  214000   -1868.0643    4782.8425    16767.665    4462.7084     176.9875   -97673.863    11551.985   -86121.878    327.34621    605.46933    132612.53      -121996   -84950.889    39.738896 
  215000   -1846.1737    4777.2567    16804.893    4434.7096    160.44922   -97635.486    11701.796   -85933.691    331.59135    835.82441    132339.63   -121966.62   -84320.518    38.846634 
  216000    -1835.316    4690.6123    16822.411    4482.4498    174.47771   -97659.911    11770.767   -85889.144    333.54577     1043.782    132418.77   -121994.55     -83873.4    40.169436 
  217000   -1851.9318    4844.7192    16882.165    4529.2236    155.99617   -97459.662    11763.573   -85696.089    333.34191   -472.25261    133106.27   -122019.83   -86612.835    39.841174 
  218000   -1799.7144    4772.8081    16864.388    4350.9974    172.92244   -97552.205     11559.88   -85992.325    327.56991    -650.2052    132919.17   -121913.61   -87252.741    39.748549 
  219000   -1730.2088    4801.3822    16777.802    4393.8886    162.47729   -97593.246    11458.372   -86134.874    324.69349   -685.30383    133221.86   -121998.59   -87466.353    39.841687 
  220000   -1838.7271    4720.7894    16825.679    4487.1765    158.74108   -97608.978    11725.456   -85883.522     332.2618   -997.93468    133241.42   -121962.64   -87822.698    39.718074 
  221000   -1767.5492    4796.0727    16819.204    4438.7553    154.59498    -97506.44    11586.903   -85919.537    328.33566    238.84544    133819.46   -121947.52   -85453.401    39.675784 
  222000   -1847.2327    4787.9504    16759.946    4443.8961    152.89768   -97685.879    11529.707   -86156.173    326.71489    113.13336    133431.18   -121983.34    -85936.02    39.567693 
  223000   -1878.2426    4811.5867    16771.108    4505.3022    146.15455   -97648.209    11645.181   -86003.027    329.98708   -427.00499    132660.73   -122004.12   -86829.163    39.878551 
  224000   -1793.1878    4713.0128    16786.249    4439.7464    135.62588   -97692.762    11618.923    -86073.84    329.24299    748.74445    132528.75   -121974.21    -84626.67    39.852326 
  225000   -1850.2298    4763.8145    16876.517    4441.5446    149.13963   -97577.853    11670.587   -85907.266    330.70698     701.7025    133368.02   -121958.64   -84542.429    39.331461 
  226000   -1855.0627    4696.9738     16811.01    4460.0139    138.60214   -97753.507    11610.923   -86142.584    329.01632    1010.3763    133075.92   -122005.04    -84181.67    39.715902 
  227000   -1881.4619    4753.0169    16810.746    4464.8451     158.2503   -97720.467    11553.238   -86167.229    327.38171   -360.51518    133127.64   -122025.86    -86867.18    39.895719 
  228000   -1813.6104    4694.8478    16846.659    4490.8158    165.99393   -97568.489    11670.164   -85898.325      330.695   -126.45364    132671.37   -121953.19   -86142.997    39.314911 
  229000   -1816.3101    4748.7809    16836.056    4477.1972    154.85938   -97567.898    11480.026   -86087.872    325.30711    428.61538    132748.45   -121968.48   -85258.073    39.939226 
  230000   -1867.1674    4837.4748     16872.78    4541.9116    150.81355    -97476.27    11794.339   -85681.931    334.21373   -165.70795    132654.35   -122012.08   -86002.514    39.733345 
  231000   -1860.1143    4854.6671    16925.271    4484.9425     148.5778   -97465.055    11546.075   -85918.981    327.17871   -1076.9233    133332.58    -122018.4   -88013.078     40.11632 
  232000     -1916.13    4829.6385     16818.79    4528.7551    155.58598   -97613.212    11620.077   -85993.135    329.27571    27.710356    133298.14   -122029.85   -85939.265    39.793442 
  233000   -1869.8483     4701.217     16803.88    4533.3385    163.74618   -97666.997    11820.388   -85846.609    334.95187    539.48022     132879.4   -121999.33   -84801.145    40.132516 
  234000   -1861.9546    4809.2504    16797.898    4473.4649    146.13424    -97647.62    11772.885   -85874.735    333.60579   -380.82236    132744.75   -122012.41   -86611.987    39.619835 
  235000   -1819.0324     4816.459    16835.925    4448.7729    133.97425   -97554.183    11473.117   -86081.066    325.11133    311.72704    133132.81   -121970.28   -85475.815    39.567516 
  236000   -1872.4577    4734.8272    16730.365    4453.1568    147.12058   -97793.957    11586.435   -86207.522     328.3224   -1339.1357    133683.82   -121986.97   -88818.356    39.661224 
  237000   -1799.4829    4754.6574    16820.441    4376.9478    151.28221   -97653.031    11758.451    -85894.58    333.19679   -109.08654    132966.24   -121956.88   -86106.118    39.499446 
  238000    -1849.834    4713.8474    16839.191    4459.0408    139.18057   -97685.139    11537.898   -86147.241    326.94702     -250.469    132943.46   -121986.56   -86632.861      39.5369 
  239000   -1796.6865    4724.9164     16897.55    4396.4303    178.25869   -97588.619    11589.826   -85998.793     328.4185    -257.2659     133197.9   -121989.09   -86498.546    39.626881 
  240000   -1804.6572    4827.9786    16754.186    4413.0385     153.6357   -97634.659    11670.203   -85964.457     330.6961    787.88466    133475.36   -121978.84   -84430.759    39.940605 
  241000   -1863.4952    4728.6591    16891.425    4504.4385    145.34319   -97589.519    11589.655   -85999.863    328.41365    54.271045    133001.95   -121995.89   -85894.594    39.939846 
  242000   -1826.4718    4743.4498    16880.108    4484.0903    156.99588   -97564.605    11598.888   -85965.716    328.67528      622.307    132943.91   -122002.78   -84759.156     39.60283 
  243000   -1891.0778    4807.5582    16686.006    4524.7612    155.18308   -97669.873     11710.51   -85959.363    331.83828    547.35621    133056.58    -121952.3   -84897.221    39.893494 
  244000   -1871.5747    4869.7565    16791.334    4450.1444    156.06225   -97548.823    11664.939   -85883.884    330.54694   -864.84908    133684.96   -121944.55   -87570.044    40.133536 
  245000   -1812.6627    4695.7535    16922.801    4489.1071    161.09717   -97557.764    11601.978   -85955.786    328.76282    134.10237    133701.11   -122013.86   -85694.301    39.950752 
  246000   -1863.4771    4720.1363    16682.597    4529.0918    164.85023   -97718.883    11506.157   -86212.726    326.04758    22.322024     132788.5   -121952.08   -86169.497    39.175798 
  247000   -1849.6829    4757.7751    16844.347     4508.012    150.47439   -97585.279    11718.081   -85867.198    332.05282    772.47247    132825.26    -121996.2   -84370.826    39.625416 
  248000    -1811.207    4804.9404    16721.653    4434.1739    164.00003   -97655.996    11643.349   -86012.647    329.93515   -150.33544    133688.86   -121969.56   -86305.758    39.800708 
  249000   -1882.4317    4769.0723    16803.816    4502.4462    154.88724   -97663.766    11555.688   -86108.079    327.45111   -986.92261     133255.8   -122011.56   -88026.063    39.911744 
  250000   -1860.1973    4807.8714    16825.296    4460.4639    159.84948   -97575.963    11747.123    -85828.84    332.87578    159.29149    133414.76   -121969.25   -85518.903    39.612648 
  251000   -1865.1766    4786.5403    16815.215    4422.7825    163.48661   -97700.209    11515.021   -86185.188    326.29875    68.679689    132749.23   -122023.06   -86052.223    39.473999 
  252000   -1807.4429    4783.5451    16838.377    4459.5571    160.72621    -97564.21    11668.028   -85896.182    330.63447    191.82877    133142.55   -121998.97   -85523.699      40.2793 
  253000   -1807.0147    4780.0084    16746.128    4522.4491    154.22525    -97594.39    11595.563   -85998.827    328.58107    393.13046    132796.28   -121990.19   -85237.452    39.313693 
  254000   -1804.5377    4746.9416    16860.216    4471.1903    143.80307    -97571.36    11823.612   -85747.748    335.04322   -5.9929739    133615.83   -121988.97   -85759.426     39.53172 
  255000   -1778.3531    4749.2786    16828.955    4421.4994    162.44822   -97580.027    11638.846   -85941.181    329.80755   -6.0781895    133115.76   -121963.86   -85952.981    39.237966 
  256000   -1781.9821    4814.8398    16872.521    4484.6788    155.59552   -97462.217    11553.529   -85908.688    327.38994   -650.63687    133645.97   -122007.87   -87176.837    40.052611 
  257000   -1839.2544      4690.37    16778.595    4461.9863    160.47888   -97705.585     11559.93   -86145.655    327.57131   -316.79158    133834.71   -121957.76   -86763.982     39.96978 
  258000   -1827.6856    4724.4576    16810.756    4510.5438    158.23151   -97571.751    11552.154   -86019.596    327.35099     471.4178    133041.11   -121948.05   -85104.919    39.513278 
  259000   -1787.0396    4862.6032    16803.232    4439.5645    170.41462   -97512.401    11818.866   -85693.535    334.90875    282.75406    133226.78   -122001.18   -85144.151    39.860642 
  260000    -1790.785     4826.442    16872.101     4427.259    153.25435   -97484.601    11548.885   -85935.716    327.25834   -398.38199    133066.79   -121972.87   -86708.833    39.134774 
  261000    -1762.958    4792.3373    16703.638    4451.3956    160.98131    -97640.39    11649.046   -85991.344    330.09658    19.735968    133722.34   -121985.78   -85952.855    39.732383 
  262000   -1816.4323    4720.5872    16720.633    4486.8746    158.39297   -97717.528    11410.171   -86307.357    323.32763    408.07946    133306.35   -121987.58   -85513.995    39.099189 
  263000   -1811.2528    4786.3285    16867.673    4503.1044    148.50084   -97530.126    11527.531   -86002.595    326.65326   -2.1956374    133350.26   -122024.48   -86006.865    39.226439 
  264000   -1818.4879    4797.0417    16726.486    4491.5195    162.83925    -97643.61    11757.148   -85886.462    333.15985    637.37477    133290.26   -122003.01   -84647.468    39.827648 
  265000   -1815.5661    4759.4822    16776.413    4464.7488    150.98639    -97616.72    11617.038   -85999.682    329.18958   -38.667404    133284.81   -121952.78   -86074.845    39.712436 
  266000   -1834.5374     4844.469    16710.803    4440.5937      146.578   -97687.909    11711.239    -85976.67    331.85894    236.41642    133386.94   -121995.82   -85516.767    39.174886 
  267000   -1825.4601    4800.1137     16862.13    4480.5269    152.43742   -97523.571    11701.398   -85822.172    331.58009    311.30523    133148.48   -121993.32   -85217.669    40.021054 
  268000   -1790.4347    4700.2137    16778.743    4449.9423     162.0323    -97678.54    11574.888   -86103.652    327.99518    347.23001    133327.92   -121979.04    -85428.48    39.755827 
  269000   -1885.2656    4870.8932     16895.55    4459.6564    160.88015   -97472.948    11751.829   -85721.119    333.00913   -487.02257    133161.48   -121974.66   -86666.929    39.342502 
  270000   -1764.0292    4725.2651    16749.623    4443.5747    147.14023    -97672.23    11678.567   -85993.664    330.93312    220.02597    133887.27    -121973.8   -85564.039    39.647568 
  271000   -1811.2049    4891.0849    16909.249    4458.9442    160.35044   -97409.856    11849.478   -85560.378    335.77619   -139.44338     133291.1   -122018.28   -85831.444    39.614142 
  272000   -1856.1912     4773.461    16794.451    4446.0141    147.00156   -97649.823    11625.199   -86024.624    329.42083    148.10107     133311.2   -121954.56   -85736.685    40.010305 
  273000   -1837.3781    4888.2525    16873.586     4388.956    127.49013   -97540.757    11815.817   -85724.939    334.82236   -1173.0346     133538.3   -121981.66   -88009.447    39.607447 
  274000    -1829.552    4745.6444    16731.289    4466.8646    158.95005   -97703.618    11579.615   -86124.003    328.12914   -161.03108     133708.2   -121976.81   -86438.013    39.906329 
  275000   -1814.5115    4753.0456    16785.751    4449.6314    157.60878   -97686.915    11709.077   -85977.838    331.79768   -163.61478    133873.82   -122018.44   -86297.281    39.846487 
  276000   -1753.2583    4711.5866    16946.839    4462.8267    154.10368   -97452.904    11613.021   -85839.882    329.07577    781.56633     133483.4      -121975   -84318.393    39.273889 
  277000   -1771.3736    4832.3166    16757.139    4382.9775    136.74144   -97640.043    11550.983    -86089.06     327.3178   -407.57723    133124.44   -121977.84   -86880.365    40.020212 
  278000    -1820.763    4835.2067     16676.09    4521.4154    160.53492   -97620.957    11660.673   -85960.285    330.42605   -258.35949    133501.77   -121993.44   -86463.307    39.778418 
  279000   -1840.2111    4694.8352    16775.708    4490.8552    161.78979   -97697.341     11580.47   -86116.872    328.15336     1100.934     133246.1   -121980.32   -83977.473    40.642331 
  280000   -1842.8521    4804.6189    16813.552    4444.7727    148.22072   -97583.484    11680.791   -85902.693    330.99615    60.283739    133463.61    -121951.8   -85785.354    39.726084 
  281000   -1838.8186    4842.5614    16792.621     4417.159     141.2552   -97629.551    11499.966   -86129.585    325.87214    10.078779    133107.98   -121984.33    -86110.02    39.663462 
  282000   -1790.9865    4800.8282    16820.239    4451.6884    160.26495   -97547.785    11494.835    -86052.95    325.72673    125.03975    133107.85   -121989.82   -85810.218    39.477797 
  283000   -1808.4987    4730.2302    16772.422    4397.5216    145.69326   -97743.181    11500.643   -86242.538    325.89133     804.4293    133378.17   -121980.55   -84677.775    39.731498 
  284000   -1801.5422    4822.6027    16770.303    4469.3645    147.14957   -97591.913     11555.93   -86035.984    327.45798    103.26068    133189.94   -121999.79   -85835.406    39.468051 
  285000   -1854.5378    4709.9055    16760.626    4525.3502    147.39326    -97675.63    11692.771   -85982.859    331.33563    259.22766    132953.57   -121964.37   -85480.219    39.589122 
  286000   -1850.5403    4840.4215    16770.258    4533.9466    153.01094   -97539.919    11649.474   -85890.445    330.10872    -761.2307    133475.66   -121987.02   -87372.261    39.861341 
  287000   -1827.2893    4907.4201    16815.373    4507.0425     178.1529   -97405.682    11678.438   -85727.245    330.92945    1032.1894     133126.2   -121986.38    -83723.24    39.283039 
  288000   -1800.1971    4806.9325    16776.036     4522.946    165.61047   -97513.365    11630.855    -85882.51    329.58112   -374.67993    134035.11   -121984.69   -86614.921    39.742638 
  289000   -1782.5053    4834.8251    16742.592    4486.7303    152.31712   -97569.905    11627.733   -85942.172    329.49265   -650.25993    132981.04   -122003.86   -87203.281    39.774367 
  290000   -1874.3953    4865.7638    16906.903    4453.6022    173.05898   -97448.822    11760.946   -85687.876    333.26747    11.510539    133697.99   -121973.76   -85665.433     38.89314 
  291000   -1792.3442    4715.8807    16870.043    4403.5088    140.62259   -97647.627    11604.435   -86043.192    328.83247   -850.08033    133574.14   -121985.34   -87699.184    40.023488 
  292000    -1820.362    4863.2394    16878.066    4425.6006    162.67064   -97488.941    11757.843   -85731.097    333.17956   -969.70951    133748.37   -121998.16   -87622.596    40.002334 
  293000   -1748.2177    4813.3357    16811.881    4381.5104    139.46486   -97610.721    11687.282   -85923.439    331.18009   -1151.4901    133480.66    -122008.7    -88165.02    39.912846 
  294000   -1825.6034    4829.0625    16728.452    4404.8192    161.78866    -97714.37    11504.118   -86210.252    325.98979    400.02935     133220.6   -122012.89    -85433.04    39.421138 
  295000   -1816.5391    4787.6669    16826.177    4459.6473    183.89474   -97514.931    11685.347   -85829.585    331.12524   -632.20253    133052.32   -121955.78    -87056.33     38.80022 
  296000   -1783.3036    4825.5913    16936.084    4371.4738    147.74006   -97452.757    11572.298   -85880.459     327.9218     831.3673    132855.67   -121950.34   -84269.632    39.705546 
  297000   -1734.3123    4699.5171    16955.972    4346.1526    134.14669   -97623.165    11509.658   -86113.507    326.14678    50.823694    133175.96   -122024.64   -86014.795    39.550174 
  298000   -1849.3415    4814.1022    16859.653    4465.3309    149.12429   -97556.341    11631.311    -85925.03    329.59404     253.9332    134017.24   -121995.21   -85428.716    39.529441 
  299000   -1774.2526    4711.0893    16857.281    4382.6277    165.63171   -97639.703    11649.702   -85990.001    330.11518    475.56121    133872.67   -121982.08   -85061.518    39.458833 
  300000   -1871.4884    4882.6233     16706.27     4394.421    164.11797   -97726.133    11544.796   -86181.337    327.14249   -346.25751    133416.77   -122002.08   -86855.066    39.428487 
  301000   -1832.6701    4758.4162    16852.433    4390.7331     148.7338   -97660.568    11788.182   -85872.386    334.03926   -398.95041    133139.74   -121978.21    -86647.03    39.374123 
  302000   -1882.0597      4729.08    16734.168    4472.4564    159.56612   -97798.787    11707.753   -86091.035    331.76014   -129.41562    133655.02      -122012   -86343.294    39.268944 
  303000   -1810.4571    4724.6782    16891.298    4415.8123    156.24288   -97635.865    11761.274   -85874.591    333.27677    822.11949    133156.05   -122013.44   -84278.081    39.487292 
  304000   -1800.9085    4837.5056    16842.259    4438.4288    153.01219   -97515.412    11669.977   -85845.436     330.6897    168.57486    133452.53   -121985.71   -85517.344     40.51579 
  305000   -1851.9784    4691.1239    16772.951    4431.8411    160.25244   -97779.549     11474.19   -86305.359    325.14174   -10.337519    133479.87   -121983.74   -86325.483    39.950672 
  306000     -1817.92    4838.9895    16849.529    4386.0014    152.92821   -97583.165    11669.096   -85914.069    330.66475    318.04485    133289.76   -121992.69   -85295.823    39.781447 
  307000   -1835.9236    4791.8766    16785.863    4431.9935    145.00699   -97667.851    11416.026   -86251.825    323.49356   -303.91504    133407.75   -121986.67   -86843.127    39.634898 
  308000   -1809.9762    4712.0576    16853.422    4440.1697    149.36449    -97625.71     11731.42    -85894.29     332.4308     852.7126    132769.28   -121970.75    -84243.18    40.091114 
  309000   -1814.5412    4771.8282    16989.115    4338.8596    161.65471    -97559.41    11648.217   -85911.194     330.0731    459.71955    133427.66   -122006.33   -85016.623    39.786735 
  310000    -1805.656    4772.2369    16820.701    4418.7706    156.24993   -97671.967    11725.167     -85946.8    332.25363   -804.72148    133489.53   -122034.27   -87513.438    40.137278 
  311000   -1850.4436     4813.512    16884.914    4451.5014    171.87255   -97495.408    11839.467   -85655.941    335.49251   -200.36868    132941.68   -121966.77    -86044.42    39.331709 
  312000   -1820.6641    4791.7676    16835.005    4446.7999    160.00141   -97625.003    11583.785   -86041.218     328.2473    71.060412    133116.85   -122037.91   -85903.263    39.009444 
  313000   -1764.7367    4702.4896    16803.073    4436.4022    147.27717   -97662.919    11643.032   -86019.886    329.92619    309.47551    133441.56   -121987.42   -85417.613    40.320342 
  314000   -1818.0902    4801.0483     16765.95    4459.4714    148.85463   -97622.938    11722.658   -85900.281    332.18251    -653.3409    133840.29   -121980.17   -87175.552    39.856647 
  315000   -1687.5389    4766.0981    16888.141    4382.2211    143.29938   -97503.806    11646.312   -85857.494    330.01913    289.32758    133752.39   -121996.03   -85293.119    39.888036 
  316000   -1802.0577    4835.6712    16807.972    4463.7905    149.61624   -97561.649     11532.07   -86029.579    326.78187   -135.53349    133684.94   -122016.64   -86293.823    40.177343 
  317000   -1802.0319    4795.1142    16759.495    4495.4475    148.91579   -97574.185    11744.784   -85829.401    332.80948     1147.824    132926.05   -121971.13   -83604.241     39.28661 
  318000   -1814.5818     4808.276    16834.047    4524.8074     160.0686   -97474.039    11576.553   -85897.486    328.04236    399.83382    132922.84   -121986.66   -85122.391    39.652817 
  319000   -1825.5768    4713.4191    16764.714    4444.5188    170.83242   -97734.638    11541.703   -86192.935    327.05483   -481.22292    133727.19   -122002.55   -87131.451    40.083735 
  320000   -1831.1428    4788.9076    16877.861    4449.6224    171.14967   -97543.384    11650.134   -85893.251    330.12741   -357.54204    133245.24   -121999.78   -86588.042    39.888312 
  321000   -1764.4815     4746.971    16770.431    4413.9442     152.0623   -97672.221    11696.034   -85976.187    331.42809   -130.35237    133543.82   -121991.15   -86230.061     40.14365 
  322000   -1818.8054    4689.3261    16880.707    4405.8116    156.49873   -97640.003    11723.039   -85916.965    332.19331    219.77104    133661.53   -121953.54   -85488.561    39.419437 
  323000   -1765.9296    4865.2951    16811.104    4463.6566    138.40431   -97575.064    11710.222   -85864.842    331.83012   -225.01785    133817.48   -122087.59   -86303.985    39.797672 
  324000   -1832.5668    4767.9569    16686.512    4478.1828    138.89273   -97732.487    11580.318   -86152.169    328.14906   -506.95871    133546.39   -121971.46    -87139.54    39.615442 
  325000   -1865.0113     4723.955    16855.603    4407.3895    171.49111   -97695.856    11581.225   -86114.631    328.17476   -650.36927    133429.37   -121989.28   -87380.205    39.561788 
  326000   -1731.6992     4807.498    16797.722    4449.3892    163.12008   -97472.096    11611.939   -85860.157    329.04511    463.10386    133650.92   -121958.13   -84957.493    39.923443 
  327000   -1871.0639    4887.3309    16664.377    4508.9531     165.4931   -97650.578    11586.168    -86064.41    328.31483   -1499.7441    133186.71   -122005.67     -88977.5    39.193844 
  328000   -1837.2871    4832.1134    16701.839    4481.0923    154.70118   -97637.688    11629.281   -86008.407    329.53651   -1074.0728    133663.87   -121970.15   -88102.151    39.657705 
  329000    -1811.232    4756.1158     16876.17    4481.3934    147.50091   -97530.081    11719.212   -85810.869    332.08486    242.92705    133476.87   -121980.03   -85337.982    39.567566 
  330000   -1798.0336    4723.5807      16742.6    4498.2284    168.40244   -97638.253    11724.992    -85913.26    332.24867    709.25909    133215.28   -121973.03   -84535.306     38.50526 
  331000   -1763.3552    4730.7408    16974.073    4417.8107    149.07843   -97493.229    11714.194   -85779.035    331.94268   -563.72487    133224.74   -122001.58   -86874.322    39.562792 
  332000   -1793.0247    4765.2573    16767.508    4443.7292    159.07071   -97610.376    11630.686   -85979.689    329.57633    1030.2906    133109.98   -121952.92   -83979.615    39.327138 
  333000   -1806.8038    4805.7077    16779.073    4417.7379    141.65859    -97702.02    11708.052   -85993.968    331.76862    682.25084     132787.4   -122039.39   -84672.743    39.646411 
  334000   -1814.6081     4784.758    16879.269    4508.4568    145.32601   -97501.625    11583.069   -85918.556    328.22702   -594.07009    133873.46   -122004.83   -87078.423    39.813959 
  335000   -1797.3704    4711.8569     16694.86    4476.1918    154.42578   -97769.755    11668.211   -86101.544    330.63967    595.82516    133083.78   -122009.72   -84945.113    39.472594 
  336000   -1852.1455    4872.0277    16819.223    4524.8339    149.84398   -97499.227    11690.314   -85808.913      331.266   -79.066537    133114.44   -122013.01   -85962.407    39.709673 
  337000    -1820.179    4806.1722    16752.664    4508.3925     154.3501   -97616.636    11592.776    -86023.86    328.50208    1066.8257       132546   -122018.04   -83961.636    40.035265 
  338000   -1835.5723    4836.2718    16888.995    4445.2816    156.83529   -97495.521    11706.923   -85788.598    331.73665   -708.21924    133411.72   -121987.33   -87166.561    39.375418 
  339000   -1765.1496    4714.1303    16733.126     4482.761    165.98222   -97697.675    11551.763   -86145.912     327.3399    617.39841    133124.28   -122028.52   -84947.244    39.488675 
  340000   -1831.9425    4729.6638    16799.228    4440.5381    160.89052   -97682.554    11656.368   -86026.186    330.30407   -868.80811    133679.29   -121980.93   -87719.993    39.353787 
  341000   -1835.8354    4748.9988    16827.444    4484.8644    159.50311   -97611.572    11650.249   -85961.323    330.13069   -103.38836    133625.25   -121996.55   -86162.805    39.916754 
  342000   -1831.0109    4701.7498    16663.062    4498.2293    160.41363   -97798.438    11616.841   -86181.597    329.18401   -543.34103    133485.51   -121990.88   -87239.346    39.598473 
  343000   -1784.9358    4712.0506    16774.742     4487.923    132.95926   -97648.864    11605.365   -86043.498    328.85882    766.85003    133117.48    -121971.6    -84554.75    40.534647 
  344000   -1817.1633    4719.5826    16692.674    4426.0607    154.18653   -97840.502    11676.328   -86164.174    330.86966   -290.15432    133570.84   -122015.84   -86729.393    39.936421 
  345000   -1814.5382    4743.4717    16878.539    4386.5212    154.93995   -97686.042    11748.306   -85937.736     332.9093   -798.28267    133560.47   -122034.98   -87492.665     39.77471 
  346000   -1854.9997    4754.0617      16823.5    4472.0873    155.89579   -97652.946    11635.965   -86016.981    329.72593    432.87604    133553.69   -122003.49   -85173.849    40.354029 
  347000     -1866.66    4729.3652    16853.273    4492.4476    148.31676   -97683.508    11730.749   -85952.758     332.4118   -651.37926    133194.25   -122040.25   -87218.064    39.656563 
  348000   -1768.9375    4835.9666    16824.527    4448.2119    147.29238   -97496.061    11687.951   -85808.109    331.19904    699.35969    133346.83   -121983.12   -84448.046    39.639713 
  349000    -1774.146    4668.0731     16728.56     4437.689    153.67063   -97803.027    11524.193   -86278.835    326.55864    558.80537    133201.71   -122016.87   -85193.294    39.349999 
  350000    -1808.463     4794.944    16781.837    4453.7203    149.00453   -97592.679    11513.397   -86079.282    326.25273   -502.98485    132938.44   -121963.72   -87054.455    39.486544 
  351000   -1794.1974    4813.2789    16699.577    4366.4009    163.85248   -97716.679    11643.889    -86072.79    329.95045   -349.10479     133592.9   -121965.59   -86752.957    39.498555 
  352000    -1800.581    4762.2188    16782.351    4493.4152    169.39871   -97621.835    11630.103   -85991.732    329.55982     416.1331    133545.55   -122028.64   -85181.261    39.152194 
  353000   -1743.2757    4716.0716    16915.763    4420.6927    160.79509   -97545.285     11638.63   -85906.655    329.80143    1302.8763     133093.8   -122015.33   -83377.724    39.135864 
  354000    -1761.162    4836.6284    16861.924    4508.3838    153.86011   -97436.221    11619.263   -85816.958    329.25263    557.21401    133375.14   -122035.86   -84733.099    39.647309 
  355000   -1847.0042    4764.8046    16882.171    4490.2546    150.37387   -97527.821    11625.158   -85902.663    329.41968    125.70827    133583.85   -121968.42    -85657.76    39.510137 
  356000    -1849.812    4783.7994    16758.418    4446.0051     143.6094   -97697.928    11712.044   -85985.885    331.88175     6.447614    133426.52   -121979.95   -85973.338    39.258128 
  357000   -1799.1215    4844.6723    16854.925    4392.8452    148.98822   -97589.845     11505.88   -86083.964    326.03973    30.814843       133856   -122032.15   -86023.809    39.812932 
  358000   -1835.2219    4798.8678    16806.522    4428.5771    142.87706   -97652.877    11854.157    -85798.72    335.90879    343.31533    133999.19    -121994.5   -85127.799    39.545863 
  359000   -1811.1213    4870.7242    16823.968    4408.6748    143.71665   -97565.769     11595.16   -85970.609    328.56963    -121.9267    133600.64   -122001.73   -86208.174     39.76875 
  360000   -1767.0694     4698.177    16773.174    4449.7345    162.41421   -97685.221    11723.416   -85961.805    332.20399     143.8939    133496.43   -122001.65   -85681.657    39.464857 
  361000   -1872.9021     4748.866    16861.296    4449.8111     155.5744   -97616.878    11704.654   -85912.223    331.67236    -476.3832    133700.12   -121959.52   -86841.113    39.771348 
  362000   -1815.9325    4683.8487    16754.258    4415.9576    142.81685   -97764.593    11754.939   -86009.654    333.09725    717.02139    133339.25   -121945.54   -84615.323    39.741058 
  363000   -1737.0579    4785.6619    16917.835    4390.0873    148.81238   -97503.794    11682.126   -85821.668    331.03397    103.06793    133601.92   -122009.13   -85620.845     39.39436 
  364000   -1804.5615    4699.5498    16934.422    4438.9704    156.28907   -97573.066    11590.335    -85982.73    328.43292    845.47188    133274.38   -121997.74   -84339.412    38.616047 
  365000   -1757.0895    4800.6303    16939.162     4439.717    140.84858   -97402.437    11592.299   -85810.138    328.48857   -572.45213    134012.86   -121965.71   -86928.961    39.980294 
  366000   -1783.1413    4765.5954    16803.186    4446.6728    157.72294   -97619.845    11648.928   -85970.917    330.09324   -572.74348    134028.72   -122009.88   -87090.442    39.394306 
  367000   -1832.1027    4829.2942    16791.142    4477.5186    153.78478   -97569.673     11598.34   -85971.333    328.65976   -796.12952    133176.69   -121989.31   -87517.612    39.552186 
  368000   -1813.5287    4765.2877    16890.357    4466.9326     154.1507   -97569.398    11549.815   -86019.583    327.28471   -171.04502     132993.3    -122032.6   -86351.337    39.634783 
  369000   -1804.7069    4750.5781    16958.972    4495.0139    172.95059   -97488.599    11523.264   -85965.335    326.53234    299.82555    133253.34   -122061.41   -85382.665    40.047112 
  370000   -1761.5976    4833.0439    16836.377    4400.7613    153.06386   -97557.302    11653.895   -85903.406    330.23401   -496.81413    133729.13   -122018.95   -86872.344    39.911897 
  371000   -1805.4237    4796.8738    16769.164    4493.4169    168.71365   -97517.737    11755.572   -85762.165    333.11519    1274.1157    133481.13   -121940.48   -83281.863    39.705063 
  372000   -1782.4032    4791.3839    16825.319    4453.9078    169.87975   -97558.292    11661.979   -85896.314    330.46306    1387.1715    133184.51   -122016.38   -83201.928     40.24738 
  373000   -1857.3383    4756.7547    16748.186    4444.9831    149.67259   -97748.271    11605.469   -86142.801    328.86177    50.880055    132955.84   -121990.53   -86044.144    39.855403 
  374000   -1810.0946    4868.9013    16722.548    4484.7558     155.0423    -97608.32    11624.834   -85983.486    329.41049    558.81216    133162.02   -122029.47   -84898.255    40.279228 
  375000   -1848.4216    4838.6992     16872.25    4571.9454    153.99735   -97410.096    11533.357   -85876.739    326.81834      549.878    133200.46   -121998.57    -84808.55     39.50804 
  376000   -1897.1585    4729.7172    16752.858    4514.9818    158.07888   -97701.217    11608.708   -86092.509    328.95354   -144.97673    133556.69   -121959.69   -86374.893     39.29712 
  377000   -1844.8076    4849.3903     16905.88    4480.1585    153.61304   -97437.378    11613.127   -85824.251    329.07875   -219.19561    132751.66   -121981.61   -86248.624    39.932709 
  378000   -1806.1655     4833.565    16802.283    4371.7549    158.73555   -97636.994    11665.612   -85971.382    330.56603    358.93211    133060.94   -121997.17   -85274.853    39.407224 
  379000   -1838.3854    4771.6931    16780.408    4456.6506    154.12313   -97688.664     11361.57   -86327.094    321.95044   -243.59984    133863.62   -122013.15   -86802.665    39.438663 
  380000   -1790.1757    4825.0276    16815.237     4384.719    139.94599   -97655.883    11739.939   -85915.944     332.6722    245.82379    133223.86   -122030.64   -85438.325    39.525828 
  381000   -1864.8241    4691.0859     16718.86    4508.9738    153.78443   -97766.846    11820.078   -85946.769    334.94308    23.721795    132775.16   -121974.73   -85900.834    39.874168 
  382000   -1911.3732    4742.7841    16830.726    4468.0134    166.97702   -97725.979    11566.461   -86159.518     327.7564    56.617611    133427.47   -122023.11   -86049.345    39.643664 
  383000   -1791.4512     4781.515        16768    4454.8626    147.79786   -97689.744    11726.651   -85963.093    332.29567    544.74184    133211.03   -122050.47   -84904.798    39.716691 
  384000    -1817.068    4804.6233    16715.973    4417.8979    155.45803   -97708.297    11761.851   -85946.446    333.29311    -357.6978    133160.88   -121985.18     -86641.1    40.019507 
  385000   -1825.1909     4759.092    16787.788    4431.3879    150.55396   -97687.016    11723.491   -85963.525    332.20611   -929.97955    133580.15   -121990.65   -87775.246    39.717012 
  386000   -1809.0923    4803.5132    16780.598    4422.6762    132.35239   -97687.597    11578.852   -86108.745    328.10753   -406.61741    133921.03   -122017.64    -86902.91    39.553337 
  387000   -1880.6725     4742.318    16839.445    4417.7803    140.51912   -97720.515    11774.978   -85945.537    333.66511    94.591696    133817.91   -121979.91   -85760.932    39.954698 
  388000   -1896.6107    4830.3315    16849.917    4451.6042    142.25316   -97611.827    11712.925   -85898.902    331.90672   -191.08995    133641.91   -121989.32   -86271.342    40.047751 
  389000   -1755.3812    4791.9147    16747.569    4433.9018    140.35993   -97647.236    11628.177   -86019.059    329.50523    445.32356    133547.03    -122005.6   -85151.726    39.818077 
  390000   -1762.3332    4775.6196     16702.22    4381.9072    151.56706   -97726.645    11617.904   -86108.741    329.21413    256.68076    133444.62   -121975.63   -85609.201     40.25219 
  391000    -1824.831    4772.3125    16907.198     4471.164    165.69784   -97481.365    11715.662   -85765.703    331.98429   -120.66778    133761.83   -121972.91   -86001.099    40.035475 
  392000   -1793.3392    4773.7281    16747.856    4427.8891    162.67306   -97673.309    11709.996   -85963.314     331.8237    106.67814     133745.3   -121992.12   -85755.234    40.452515 
  393000   -1793.2553    4836.1625    16896.379    4486.1491    168.60623   -97373.141    11621.435   -85751.705     329.3142    841.57827    133481.78   -121967.18   -84113.409    40.021488 
  394000   -1807.2924    4798.0588    16776.241    4412.7848    175.57265   -97619.617    11631.636   -85987.981    329.60324     561.8822     133156.1   -121974.98   -84896.837    40.237339 
  395000   -1759.5243    4807.8912    16756.677    4433.8917    170.78641   -97588.089    11591.651   -85996.439    328.47019   -210.25034    133890.83   -121997.81   -86406.986    39.855827 
  396000   -1850.5934    4903.0081    16915.857    4502.8932    164.02504   -97365.051    11678.427   -85686.624    330.92916   -1369.2635    134063.51   -122000.24   -88363.779    39.925988 
  397000   -1777.2019    4731.8459    16775.357    4491.9619    156.72689   -97626.987    11679.247    -85947.74    330.95238   -130.79512    133359.27   -122005.68   -86202.125    39.421013 
  398000    -1810.299    4752.0787    16935.858    4417.5195    167.52577   -97555.093    11653.776   -85901.317    330.23063   -499.44931    133365.18   -122017.78   -86872.743     40.19413 
  399000   -1844.7726    4821.7026     16757.76    4425.1647    156.55721   -97684.433    11508.823    -86175.61    326.12311     39.34016    133871.77   -122000.84   -86098.803    39.945018 
  400000   -1831.0341    4812.8912    16933.558     4418.484    163.75602   -97507.179    11689.403   -85817.776    331.24018   -80.128481    134026.52   -122004.83   -85974.399    39.511652 
  401000   -1821.4451    4696.9329     16787.27    4427.5433    159.96391   -97734.329    11592.221   -86142.107    328.48636   -363.37861    133557.56   -121984.59   -86849.896    39.915322 
  402000   -1863.7311    4826.4922    16868.589    4472.7868    152.10037   -97566.068    11723.425   -85842.642    332.20426    778.94147    134162.13   -122022.31   -84318.552    39.201744 
  403000   -1882.4737     4779.757    16807.522    4528.8058    155.14842   -97627.624    11587.055   -86040.569    328.33997     -18.7589    133961.47   -122016.38   -86077.218    39.953355 
  404000    -1818.875    4810.8051    16747.422    4401.3606    157.17488   -97701.763    11888.629   -85813.134    336.88561   -245.11491    133998.16   -121999.65   -86292.143    39.615312 
  405000   -1738.5189    4812.3919    16896.172    4365.4244    156.80604   -97538.482    11651.998   -85886.484    330.18025   -348.43887    133173.39   -122030.76   -86563.221    39.770568 
  406000   -1856.3524    4878.5206    16822.539    4471.5685    155.41427    -97555.63    11847.717   -85707.914    335.72628    504.98464    133718.38   -122027.32    -84723.12    38.845431 
  407000   -1809.1117    4851.5498    16795.718    4415.8311    141.91309   -97589.695    11627.971   -85961.724    329.49939    389.36425    133813.67    -121985.6   -85201.866    40.237075 
  408000   -1767.6201    4656.6183    16744.724     4416.301    147.47283    -97777.77    11576.851   -86200.919    328.05081    376.89929    133577.84   -121975.27   -85466.683    39.293011 
  409000   -1785.7289    4864.5778    16810.615    4411.4408    152.42518   -97576.445    11646.592   -85929.853    330.02705   -341.63147    133463.15   -122029.77   -86594.812    39.323688 
  410000   -1694.8135    4760.8232    16959.331    4434.5274     157.4448   -97404.399    11638.641   -85765.758    329.80175    253.53959    133459.53   -122021.71   -85272.276    39.264286 
  411000   -1783.4979    4802.7033    16691.939     4439.919    153.08505   -97680.734    11652.367   -86028.367     330.1907   -678.84997    133709.57   -121984.88   -87352.136    40.493291 
  412000   -1776.6964    4883.0234     16769.57    4511.0467    162.63912   -97450.591    11704.592   -85745.999    331.67058    727.63925    133158.35   -122000.17    -84332.94    40.073328 
  413000   -1780.7951    4832.2722    16759.045    4441.3683    145.39935   -97610.075     11694.38   -85915.696     331.3812    108.94308     133784.2   -122007.36   -85703.136    38.823631 
  414000   -1830.8788    4705.3263    16670.602    4451.9398    164.07869   -97824.856     11642.16   -86182.696    329.90145    528.48734    134033.11   -121985.92   -85149.643     39.96823 
  415000   -1750.8232    4815.5338    16934.961    4397.9603    152.65911   -97469.941    11664.908   -85805.033    330.54607   -292.15319     133397.2   -122020.23   -86373.406    39.372533 
  416000   -1754.2664    4728.7716    16810.838    4449.7603    151.39516   -97591.276    11534.944   -86056.331    326.86332   -223.87066    133993.29   -121977.77   -86493.809     39.17362 
  417000   -1783.7489    4753.4712    16717.575    4506.0751    160.99573    -97666.39    11767.937   -85898.453    333.46557    657.50806     134322.4   -122020.76   -84610.425    39.709266 
  418000   -1860.1742    4742.3058    16848.136    4484.3564    155.03755   -97628.231    11567.121   -86061.111    327.77509   -393.96602    133501.84   -121997.89   -86828.158    39.363898 
  419000   -1769.2639     4828.507    16887.073    4510.7254    158.89372   -97378.898     11751.33   -85627.567      332.995   -767.21487    133181.22   -121994.83   -87117.738    40.372271 
  420000   -1790.5053      4817.39     16774.24    4502.4726     157.9399   -97517.199    11618.121   -85899.078    329.22028   -163.03106    133464.11   -121978.74   -86216.408    40.215007 
  421000   -1783.7812     4807.989    16766.929    4436.1742    145.34299   -97608.669    11583.774   -86024.895      328.247   -903.69825    133839.26   -121981.32   -87788.831    39.310522 
  422000   -1725.6255    4841.0712    16736.243    4404.0878     157.3342   -97566.451    11768.648   -85797.804    333.48572    123.45616    133777.83   -121979.56   -85556.939    40.057354 
  423000   -1720.8836    4819.4868     16768.96    4387.9696    142.18205   -97575.041    11608.348   -85966.692    328.94335    679.93621    133366.48   -121972.76   -84644.207    40.326799 
  424000   -1780.4247    4782.7386    16857.718    4422.8149    141.50775   -97544.547    11696.689   -85847.858    331.44664    -153.0167    133934.12    -121968.9   -86146.744    39.511861 
  425000   -1761.8847    4748.5369    16763.132    4465.0919    137.60532   -97626.211     11788.71   -85837.501    334.05423    -898.2128    133909.35   -121978.69   -87591.648    40.213487 
  426000   -1831.7675    4883.1549    16838.318    4457.9605    152.94063   -97482.274    11665.889   -85816.386    330.57386    -391.3111    133719.71   -121982.88   -86579.507    39.541534 
  427000   -1814.3699    4718.5472    16794.901     4376.361    168.00049   -97741.916    11652.032   -86089.884    330.18121    348.38818    132963.43   -121985.36   -85414.312    39.671235 
  428000   -1780.9633    4760.4028    16820.597    4467.3572    158.72943   -97558.002    11548.122    -86009.88    327.23672   -466.36407    133837.86   -121984.12   -86920.171    39.724657 
  429000   -1764.0101    4708.5152    16837.892    4476.5905    155.27859   -97609.405    11782.615   -85826.789    333.88152    831.37669    133368.77   -122023.67   -84209.723    39.660684 
  430000     -1806.26    4850.0796    16760.801    4422.9115    145.43122   -97644.938    11536.724   -86108.214    326.91374    143.57917    133635.55    -122017.9   -85828.388    39.430861 
  431000   -1806.0969    4741.2276    16799.435    4475.4267    169.77761   -97586.763    11784.793    -85801.97    333.94322    1127.3829    133204.87   -121966.53   -83611.852    39.471179 
  432000   -1806.7403    4806.0195    16804.898    4431.9742    166.04247   -97597.814     11573.44   -86024.374    327.95414   -873.71741    133834.98   -122000.01   -87729.736    40.165138 
  433000   -1739.5552    4781.0398    16697.956    4477.7906    164.94713   -97596.755    11718.361   -85878.394    332.06077    980.66019    133408.87   -121978.93    -83970.39    39.658032 
  434000   -1835.5038    4824.5781    16882.265    4477.2443    174.43052   -97520.505    11496.038   -86024.467    325.76083    323.73581    132360.88   -122043.52   -85399.544    39.080364 
  435000   -1819.6243    4703.4636    16815.546    4452.3499    150.12088   -97669.938    11657.445   -86012.492    330.33459    799.96047    132978.33   -121971.79   -84461.087    39.154247 
  436000   -1739.3342    4782.6649    16731.168    4439.6545    158.30031   -97650.936    11532.952   -86117.984    326.80686    900.19902    133261.81   -122023.39   -84368.459    39.656955 
  437000   -1842.8431    4776.3429    16759.053    4460.2671     161.2969   -97654.927    11665.748   -85989.179    330.56988   -552.87161    133517.74   -121969.04   -87065.741    39.410867 
  438000   -1816.7672    4743.3147    16852.886     4450.103    147.80066   -97618.477    11564.484   -86053.992    327.70038    818.77827    132846.06   -121995.81   -84467.672    38.625672 
  439000   -1823.5869    4862.0807    16864.297    4494.1227    149.86468   -97429.034    11587.425   -85841.609    328.35045   -450.42943    133473.89   -121975.81   -86718.406    39.902679 
  440000   -1819.1157    4828.9525        16853    4420.2482    175.77775   -97529.529    11498.325   -86031.204    325.82565   -449.37583    133585.44   -121988.39   -86906.681    39.174499 
  441000   -1800.8742     4781.974    16792.447    4478.8087     167.4669   -97576.545    11669.819   -85906.726    330.68524    488.27302    132558.97   -121996.37   -84962.778    39.730236 
  442000    -1776.062    4703.8237    16795.474    4437.8661    150.36105   -97667.203     11877.31   -85789.894    336.56485   -275.31467    133790.79   -121978.67   -86327.088    39.663833 
  443000   -1764.0439    4821.4657    16757.463    4428.4628    150.73287   -97589.296    11730.191   -85859.104    332.39599    405.98215    133807.46   -121983.38   -85066.852    39.796403 
  444000   -1787.2066    4732.0793    16760.248    4429.1391    169.64527   -97693.622    11650.095   -86043.528    330.12631    102.77984    132850.97   -121997.53   -85844.392    40.246955 
  445000   -1810.8946     4783.894    16886.092    4345.3313    154.79016   -97599.928    11776.078    -85823.85    333.69628    544.20265    133335.19   -121959.14   -84765.616    39.459341 
  446000   -1773.2265     4724.368    16810.351    4398.5469    154.66808   -97646.905    11550.939   -86095.966    327.31657    338.85303    133305.05   -121961.61   -85437.196    39.795358 
  447000   -1798.6435    4806.7277    16882.171    4398.4817     162.4931   -97606.705     11596.89   -86009.815    328.61865     -341.477    133865.04   -122057.93   -86676.476    39.571543 
  448000   -1797.3383    4892.0659    16871.258     4351.801     169.7126   -97514.535    11693.072   -85821.463    331.34415    432.13376    133611.53   -122002.03   -84979.412    39.491571 
  449000   -1865.7444    4861.8585    16779.858    4404.7027    157.63585   -97672.788    11521.219   -86151.569    326.47438   -872.90747    133564.77    -122011.1    -87851.91    39.820053 
  450000   -1809.3261    4794.1458      16783.3    4401.3837    156.37895   -97691.782    11733.763   -85958.019     332.4972     1298.549     132890.1   -122017.66   -83441.346    39.594834 
  451000   -1823.7394    4690.4528    16853.667    4423.6762    154.87995   -97713.195    11647.782   -86065.412    330.06078   -674.75282     133148.5   -122012.13   -87375.671    39.748626 
  452000   -1815.1455    4858.6882    16877.523    4421.3793    159.63911   -97534.339    11728.067   -85806.272    332.33578   -333.25934    133690.73   -122036.42   -86456.042    39.342069 
  453000   -1830.5921    4663.6388    16810.793    4414.1196    156.72502   -97767.505    11502.651   -86264.854    325.94822    1036.8525    133166.82   -121982.19   -84251.181    39.685825 
  454000   -1822.3249    4773.0643    16841.688    4478.2086    156.67236   -97529.529    11709.409    -85820.12    331.80708     363.7499    133229.78   -121956.84   -85113.347    38.667202 
  455000   -1850.7642    4768.3045    16958.317    4444.1764    151.13903   -97554.892    11693.288   -85861.603    331.35027    566.11509    133124.42   -122026.06   -84762.501    39.531893 
  456000   -1784.4322     4809.062    16895.065    4423.6243    157.30545   -97489.567    11712.488    -85777.08    331.89433    342.97609    133166.45   -121990.19   -85110.987    39.482961 
  457000   -1834.6712    4978.3235     16826.36    4446.8965    153.43788   -97473.264    11541.263       -85932    327.04238   -423.16711    133777.13   -122043.61     -86757.6    39.176154 
  458000   -1822.0716    4815.8893    16866.576    4413.9298    155.14541   -97568.788    11631.824   -85936.964    329.60858   -312.65381    133110.92   -121998.26   -86543.914    39.504199 
  459000   -1791.7962    4810.2533    16843.902    4476.8026    162.43859   -97497.717    11595.573   -85902.144    328.58133    -30.56769    133229.69   -121999.32   -85961.538    39.757209 
  460000   -1766.3384    4834.7009    16881.926     4423.089    165.76689   -97473.924    11557.098   -85916.826    327.49107   -6.1022556    133723.17   -122013.07   -85928.727    39.213709 
  461000   -1826.2626    4859.9986    16879.118    4419.4883    160.91425   -97564.748    11596.815   -85967.933    328.61652     758.1014    133505.96      -122058   -84491.874    39.188262 
  462000   -1768.6264    4641.9375    16922.247    4422.0021    161.14111   -97602.144    11730.872   -85871.271    332.41529    769.81689    133396.88   -121980.84   -84373.626    39.180804 
  463000   -1886.1249    4782.4696    16866.711    4406.3581    163.81619   -97629.899    11482.699     -86147.2    325.38286    117.98538    133244.22   -121963.13   -85917.927    39.618703 
  464000   -1764.7721    4702.8116    16808.333    4437.8746    146.46455   -97678.763    11694.718   -85984.044     331.3908    50.464925    133212.29   -122009.47   -85886.003    39.133322 
  465000   -1804.0755    4744.6795    16917.917    4444.1617    151.83298   -97570.905     11711.51   -85859.395    331.86662    32.144293     133300.1   -122025.42   -85796.905      39.7925 
  466000   -1798.6205    4753.1384    16944.586    4423.5701    162.97024   -97502.981    11710.882   -85792.099    331.84882    1227.0553    132666.79   -121988.62   -83417.981    39.787085 
  467000   -1808.3336    4782.1499    16864.866    4468.8848    145.88894   -97551.219    11489.906   -86061.313    325.58708    77.806754    132586.89   -122004.68   -85910.862    39.665987 
  468000   -1830.4166    4855.7798    16919.605     4382.403    168.94569   -97502.669    11732.732   -85769.937    332.46799   -785.24131    134168.66   -121998.99   -87306.428    40.053324 
  469000   -1787.4222     4859.272    16682.565     4402.815    151.82162   -97701.218    11607.621   -86093.597    328.92274   -921.27151     133736.2   -122010.27   -87890.449     39.55449 
  470000   -1802.7052    4825.8659    16821.884    4419.6707      153.891   -97579.046    11674.478   -85904.568    330.81726   -425.02742    133674.99   -121997.65   -86733.164    39.871095 
  471000    -1798.254    4849.1066    16907.469    4400.4798    143.50703   -97502.333    11568.602   -85933.731    327.81707   -77.168741    133916.18   -122004.64   -86084.444    38.724175 
  472000   -1810.3042    4725.7092     16861.72    4402.5286    163.84636   -97682.141    11553.723   -86128.418    327.39544    74.151731    133583.12   -122025.64   -85983.958    40.372675 
  473000   -1759.1396    4707.9538    16879.457    4430.0002    137.95424   -97610.497     11601.88   -86008.617    328.76005    -26.23619    133321.87   -122006.72    -86059.63    39.119087 
  474000   -1705.2656    4737.1622    16873.169    4442.4646    145.16402   -97542.926    11576.429   -85966.496    328.03887    201.50727    134030.29   -122035.62   -85572.611    39.359267 
  475000   -1734.4398    4845.9916    16873.124    4381.3859    156.17633    -97428.03    11767.156   -85660.874    333.44345   -188.50815    133658.95   -121950.27   -86028.329    39.394259 
  476000   -1768.4024    4829.0405    16912.409    4405.1469    152.08323   -97484.759    11720.241   -85764.518    332.11403    527.10281    133610.71   -122015.04   -84737.419     39.65384 
  477000   -1808.6975     4824.993    16844.061    4398.6394    147.38052    -97587.73    11737.548   -85850.182    332.60444   -21.610565    133270.95   -121994.11   -85892.185    39.367279 
  478000   -1748.0401     4794.717    16836.427       4338.3    143.29607   -97647.449    11698.721   -85948.728    331.50421    31.831207    133659.89   -122012.15    -85886.68    39.341705 
  479000   -1776.6194    4860.6345    16682.578    4357.0823    153.02477   -97701.897    11603.502   -86098.395    328.80601    218.35901    133741.13    -121978.6   -85672.491    40.107738 
  480000   -1766.0223     4790.964    16865.247    4404.2182    157.21472   -97514.333    11664.544   -85849.788    330.53576    242.21981    133942.49   -121965.95   -85376.633    39.918136 
  481000    -1819.925    4706.7558    16793.403     4393.687    164.05525   -97777.408    11615.839    -86161.57    329.15561   -139.39878    133244.47   -122015.38   -86432.454    40.487948 
  482000   -1781.6759    4749.8163    16878.108    4469.7801    146.31612   -97556.778    11628.113   -85928.665    329.50341   -149.90492    133324.51   -122019.12   -86220.141    39.825149 
  483000   -1796.7075    4865.4997    16885.736    4416.0419    155.58762   -97442.739    11753.881   -85688.859    333.06726   -181.03617    133783.39    -121968.9   -86042.077    39.781124 
  484000   -1800.1502    4758.1528    16703.737    4417.8371    157.96733   -97711.285    11690.313   -86020.972    331.26597     396.2505    133179.06   -121948.83   -85251.342    40.482845 
  485000   -1779.6594    4753.9925    16714.395    4377.3014    146.51513   -97717.962    11565.375   -86152.587    327.72562     47.19713    133709.62   -121930.51   -86060.552     39.80963 
  486000   -1841.2761    4730.0287    16837.238    4405.3076    169.57407   -97637.779    11830.071   -85807.708    335.22626     -297.581    133751.08   -121938.65   -86388.176    39.481931 
  487000    -1783.343    4767.0988    16763.866    4358.2511    146.11051   -97712.476    11646.391   -86066.086    330.02135    -114.0218    133759.88   -121964.46   -86288.514     39.81571 
  488000   -1793.1395    4793.4084    16794.154    4459.6814    152.34815   -97627.234    11668.373   -85958.861    330.64427   0.52033644    133714.23   -122033.69   -85957.846     40.45311 
  489000    -1784.828     4705.762    16789.911    4468.6382    149.55138   -97651.173    11608.917   -86042.256    328.95947    245.32576    132832.17   -121980.21   -85567.006    39.503879 
  490000   -1779.4813    4695.7641    16813.859    4393.7209    175.33105   -97704.165    11547.779   -86156.386      327.227   -531.01905    133337.64   -122003.36   -87189.002    39.320153 
  491000   -1881.0482    4797.6883    16821.816    4479.7901    176.24489   -97601.759    11692.676   -85909.083    331.33291   -1110.3521    133302.46   -121996.25   -88067.696    40.034117 
  492000   -1807.6749    4767.5091    16776.919    4391.7757    173.76136   -97702.837    11727.204   -85975.633    332.31134    748.76498     132575.6   -122005.13   -84527.912    39.632848 
  493000   -1774.2373    4842.2585    16813.767    4402.1817    142.69041   -97512.972    11696.052    -85816.92    331.42859   -434.30374     133225.3   -121939.63   -86660.753    39.366413 
  494000    -1757.802    4651.6236    16847.144    4343.6752    147.15423   -97770.696    11642.716    -86127.98    329.91722   -172.25169    133611.99   -122002.49   -86463.629     39.51677 
  495000   -1704.8943    4753.4976    16947.858    4410.4592    165.82797   -97421.001    11650.432   -85770.569    330.13585    1151.1935    133404.63   -121993.75   -83530.842    39.971214 
  496000   -1742.5651    4750.8303    16787.154       4437.2     160.2276   -97610.733    11546.563    -86064.17    327.19255    430.10398    134068.74   -122003.58   -85223.207    39.384642 
  497000   -1812.3999    4787.1939    16808.887     4375.646    160.35851     -97683.4    11847.096   -85836.304    335.70869    -1142.522    133376.78   -122003.09   -88058.696      38.9374 
  498000   -1826.6222    4790.7566    16867.599    4395.4137     170.4915   -97541.626     11657.24   -85884.385    330.32878   -816.59463    133817.29   -121939.26   -87478.042    39.989948 
  499000   -1777.4854    4749.9513    16876.025    4382.4709    163.29269   -97557.664    11521.322   -86036.342    326.47732   -687.32896    133531.34   -121951.92   -87374.858     39.48571 
  500000   -1852.6761    4807.1379    16742.838    4411.8236    163.24265   -97681.416    11509.304   -86172.112    326.13675   -1337.4766    134107.31   -121953.78   -88787.972    39.820199 
  501000   -1782.2823    4752.0898    16798.387    4421.3078    147.66954   -97624.957    11726.671   -85898.286    332.29624   -694.00344    133450.58   -121962.13   -87248.983    39.216026 
Loop time of 12602.2 on 56 procs for 500000 steps with 11840 atoms

Performance: 3.428 ns/day, 7.001 hours/ns, 39.675 timesteps/s
97.9% CPU use with 56 MPI tasks x no OpenMP threads

MPI task timing breakdown:
Section |  min time  |  avg time  |  max time  |%varavg| %total
---------------------------------------------------------------
Pair    | 9049.3     | 9575.9     | 10143      | 386.9 | 75.99
Bond    | 245.15     | 288.53     | 330.85     | 170.8 |  2.29
Kspace  | 1383       | 1995       | 2523.7     | 887.6 | 15.83
Neigh   | 127.67     | 127.92     | 128.18     |   1.2 |  1.02
Comm    | 102.91     | 132.15     | 163.94     | 148.1 |  1.05
Output  | 0.03774    | 0.038238   | 0.04706    |   0.6 |  0.00
Modify  | 354.01     | 431.46     | 501.92     | 225.6 |  3.42
Other   |            | 51.21      |            |       |  0.41

Nlocal:        211.429 ave         244 max         186 min
Histogram: 3 5 9 9 7 9 6 4 3 1
Nghost:        6906.62 ave        7075 max        6735 min
Histogram: 5 2 3 7 11 7 6 7 5 3
Neighs:        107943.0 ave      123599 max       93820 min
Histogram: 2 6 6 8 10 7 9 2 5 1

Total # of neighbors = 6044811
Ave neighs/atom = 510.54147
Ave special neighs/atom = 6.1405405
Neighbor list builds = 18970
Dangerous builds = 0
write_data      data_1_relax.*
System init for write_data ...
PPPM initialization ...
  using 12-bit tables for long-range coulomb (../kspace.cpp:340)
  G vector (1/distance) = 0.26530934
  grid = 45 50 54
  stencil order = 5
  estimated absolute RMS force accuracy = 0.00036010177
  estimated relative force accuracy = 1.0844358e-06
  using double precision FFTW3
  3d grid and FFT values/proc = 8265 2520
WARNING: Not all mixed pair coeffs generated from mixing. Use write_data with 'pair ij' option to store all pair coeffs. (../write_data.cpp:312)
unfix 1

fix             1 all npt temp  ${TEMP} ${TEMP} 100  tri  1500 1500 1000
fix             1 all npt temp  330 ${TEMP} 100  tri  1500 1500 1000
fix             1 all npt temp  330 330 100  tri  1500 1500 1000
run		500000
PPPM initialization ...
  using 12-bit tables for long-range coulomb (../kspace.cpp:340)
  G vector (1/distance) = 0.26530934
  grid = 45 50 54
  stencil order = 5
  estimated absolute RMS force accuracy = 0.00036010177
  estimated relative force accuracy = 1.0844358e-06
  using double precision FFTW3
  3d grid and FFT values/proc = 8265 2520
WARNING: Inconsistent image flags (../domain.cpp:814)
Per MPI rank memory allocation (min/avg/max) = 23.03 | 23.16 | 23.27 Mbytes
Step E_vdwl E_bond E_angle E_dihed E_impro PotEng KinEng TotEng Temp Press Volume v_coulomb Enthalpy S/CPU 
  501000   -1782.2823    4752.0898    16798.387    4421.3078    147.66954   -97624.967    11726.671   -85898.296    332.29624   -693.98366    133450.58   -121962.14   -87248.954            0 
  502000   -1719.2164    4682.7411    16818.996    4392.2116    146.60824   -97702.127     11577.25   -86124.877    328.06212    2055.2541    130881.49   -122023.47   -82201.865    37.975998 
  503000   -1810.4523    4796.6124    16814.029    4418.0762     160.7954   -97568.647    11852.218    -85716.43    335.85382    1615.5053    129841.54   -121947.71     -82657.3    38.030971 
  504000   -1834.3214    4757.9787    16897.515    4513.9882    147.18702   -97520.104    11595.234    -85924.87    328.57173    584.56751    129744.61   -122002.45   -84818.756    37.673199 
  505000   -1797.2442    4706.2854    16851.967    4451.2379    169.20923   -97605.608    11645.254   -85960.354    329.98913    335.10622       129693   -121987.06   -85326.521    38.031985 
  506000   -1871.5158    4716.2745    16709.249    4478.0203    143.14009   -97853.223    11745.943    -86107.28    332.84235    1938.4499    129793.84   -122028.39   -82437.969    37.640923 
  507000   -1829.0921    4772.9342    16980.806    4433.4722    152.75529   -97445.055    11589.967   -85855.088    328.42248    1247.4695    129724.87   -121955.93   -83494.996    37.439707 
  508000   -1843.9189    4565.8456    16807.182    4445.0857    155.97263   -97829.969    11561.179    -86268.79    327.60673    1384.0465    129938.48   -121960.14   -83645.995    37.733202 
  509000   -1856.9406    4703.4161    16778.382    4416.5351    169.92047   -97755.686    11735.717   -86019.969    332.55258    1486.0454    129859.63      -121967   -83205.593    37.785289 
  510000   -1770.0163    4728.7053     16885.59    4397.6548    168.72793   -97599.319    11665.857   -85933.462    330.57296    1847.4184    130077.31   -122009.98   -82428.828    38.112907 
  511000   -1816.7018    4721.0879    16796.291    4407.0833    158.69417   -97715.254     11812.95   -85902.303    334.74112    1654.8278     130098.6   -121981.71   -82762.508    38.431201 
  512000   -1797.4774    4773.4492    16798.111    4368.5057    150.10589   -97676.865    11731.228   -85945.637    332.42535    794.67082    129952.29   -121969.56    -84439.56    38.427196 
  513000   -1901.9808    4914.6868    16890.721    4391.4786    155.28181   -97521.827    11707.442   -85814.385    331.75133    377.21228    129519.27   -121972.01   -85101.867    38.026381 
  514000   -1840.1371    4747.1295    16799.666     4417.974     152.7151   -97670.951    11636.157   -86034.794    329.73134     2352.376     129542.1    -121948.3   -81590.594    38.266223 
  515000   -1841.3844    4691.3802    16918.205     4463.673    175.10977     -97595.7    11807.326   -85788.374    334.58174    2074.4703    129063.48   -122002.68   -81883.685    37.967316 
  516000   -1861.7468    4681.1758    16824.086    4447.9928    153.75401   -97785.957     11863.77   -85922.187    336.18118    1423.7401    129439.89   -122031.22   -83234.524    37.955887 
  517000   -1872.3144    4682.5321    16829.733      4436.93    154.40734   -97776.532    11653.153   -86123.379    330.21297    1894.3935    129116.93   -122007.82   -82556.164    37.651619 
  518000    -1934.855    4814.8331    16856.147    4484.7722     165.3573   -97588.976    11692.784   -85896.192    331.33597    1883.5433     129175.1   -121975.23    -82347.81    37.586646 
  519000   -1852.7376    4753.4211    16734.585    4451.5525     141.8482   -97755.235     11670.72   -86084.515    330.71077    1731.8091    129435.63    -121983.9   -82815.403    37.949901 
  520000    -1825.896    4769.9423    16789.362    4441.0284    155.87475   -97642.388    11654.315   -85988.073    330.24591    462.13408     129546.7    -121972.7    -85114.96    37.808315 
  521000   -1851.9975     4679.974    16713.938    4421.6338    150.17881   -97871.347    11685.773   -86185.573    331.13732    1625.7179    129769.19   -121985.07    -83108.82    37.620809 
  522000   -1816.4241     4674.782    16792.171    4449.1023    159.32963     -97741.6    11575.233   -86166.366    328.00498    1174.0931    129902.05   -122000.56   -83942.061     37.56015 
  523000   -1825.5536    4721.3044    16914.436    4416.8963    159.31089   -97601.895    11530.554   -86071.341    326.73889    1360.7789    129318.95   -121988.29   -83504.934    37.565523 
  524000   -1836.4756     4682.274    16838.353     4507.665    141.04212   -97594.097    11671.472   -85922.625    330.73206    1107.2351    129695.43   -121926.96   -83828.318    37.319141 
  525000   -1842.4239    4689.7339    16918.212    4452.6523    167.22342    -97597.41    11565.435   -86031.974    327.72734    1498.9409     129850.8   -121982.81   -83193.369    37.644225 
  526000     -1845.43    4733.3825    16932.739    4528.7887    148.51023   -97492.575    11695.225    -85797.35    331.40516    2349.7895    129007.08   -121990.57   -81376.372    37.676681 
  527000    -1842.825    4786.5427     16840.62    4489.6525    144.69138   -97598.736    11602.825    -85995.91    328.78685    1770.6821    128767.68   -122017.42   -82670.667    37.970143 
  528000   -1847.6812    4690.8557    16767.793    4446.9026    156.66514   -97801.046    11759.977   -86041.069    333.24003    891.98994    129904.27   -122015.58   -84351.176    37.418082 
  529000   -1806.3983    4748.2484    16742.267    4414.9425    157.64657   -97760.283    11610.703    -86149.58    329.01007    2043.1133    128685.97   -122016.99   -82315.161    37.518394 
  530000   -1877.9063    4770.4405    16912.898    4463.7905     165.8322   -97568.573    11600.984   -85967.589    328.73467     1629.937    129376.22   -122003.63   -82892.192    37.659105 
  531000   -1846.2277    4600.8344    16861.772    4486.5455     161.0332   -97702.056    11603.485   -86098.571    328.80554    1676.2965    129139.97   -121966.01   -82941.477    37.216798 
  532000   -1840.9531    4726.1996    16846.257    4435.0783    151.04495   -97708.305    11677.668   -86030.638    330.90763    1524.8648    129144.34   -122025.93    -83158.65    37.305464 
  533000   -1902.6509    4773.5483    16948.777    4446.1856    164.58496   -97579.357    11705.289   -85874.068    331.69034    938.93399    129271.08    -122009.8   -84103.909    37.758412 
  534000    -1920.702    4762.6523     16856.77      4507.14    151.14414   -97640.264    11611.738   -86028.526    329.03941    849.85559    129088.16   -121997.27   -84428.572    37.476009 
  535000    -1813.996    4725.6298    16838.211    4416.4949    151.47184   -97667.309    11625.642   -86041.667    329.43341    1638.5601    129072.63   -121985.12   -82957.254    37.665426 
  536000   -1882.4513    4707.7998    16872.641    4524.5723    150.94716   -97693.113     11664.98   -86028.133    330.54812     949.2198    128807.18   -122066.62   -84245.004    37.844023 
  537000   -1847.8013    4730.7301    16809.786    4442.6263    150.06547   -97709.543    11680.957   -86028.586    331.00084    2789.3561    128480.11   -121994.95   -80802.029    37.614333 
  538000   -1842.9119    4652.6907    16917.644    4513.6631    147.81141    -97606.69    11753.712   -85852.979    333.06248    2672.6974    128898.17   -121995.59   -80828.715    37.432393 
  539000   -1839.0837    4697.3149    16961.206    4431.6349    153.36312   -97612.689    11683.742   -85928.947    331.07975      1785.61    129092.08   -122017.12   -82567.223    37.612247 
  540000   -1886.3923    4767.9347    16865.172    4394.0397    157.34193   -97736.161    11735.043   -86001.117    332.53348    687.74893    129217.32   -122034.26   -84705.053    36.782249 
  541000   -1886.2144    4698.8699    16850.459    4411.2497    158.72317   -97779.131    11614.096   -86165.036    329.10621     596.5436    129158.87   -122012.22   -85041.357    37.910907 
  542000   -1828.5897    4608.3975    16924.617    4451.1978    156.04513   -97637.231    11650.007   -85987.224    330.12383    2336.3633    129013.11    -121948.9     -81591.3    38.027971 
  543000   -1856.0706    4701.0861    16831.681    4501.9579     156.7037    -97696.72    11823.501   -85873.218    335.04009    1508.9425    128729.79   -122032.08   -83040.342    37.795315 
  544000   -1859.5629    4667.5173    16891.704    4460.2697    169.05557   -97621.603    11678.278   -85943.325    330.92493    2233.0813    128658.64   -121950.59   -81753.273      38.5069 
  545000    -1816.839    4699.7686     16889.41    4476.5487      156.404    -97609.61    11702.306   -85907.304    331.60581    710.42143    129133.68    -122014.9    -84569.38    38.311845 
  546000   -1890.5299    4869.1875    16797.427    4519.7898     168.1687   -97561.225    11646.113   -85915.112    330.01347    781.87575    129045.19   -122025.27   -84443.628    37.922476 
  547000   -1827.7877    4842.8053    16829.968    4394.9054    157.28573   -97607.078    11575.344   -86031.734    328.00812    1508.2048    129363.52   -122004.25   -83186.303    38.101919 
  548000   -1858.8564     4764.834    16786.547    4432.2162    157.05122   -97705.627    11764.377    -85941.25    333.36471     1431.379    128752.99   -121987.42   -83253.506    37.775038 
  549000   -1880.7093    4723.7104    16803.047     4473.688    151.15352   -97685.538    11731.951   -85953.587    332.44586    1333.9797    129399.22   -121956.43    -83436.16    37.876089 
  550000   -1910.8469    4738.1261    16939.739    4496.6701    177.17369   -97573.843    11579.023   -85994.821    328.11235     1455.992     129620.8   -122014.71   -83242.433     38.35415 
  551000   -1863.3534    4785.9221    16850.961    4488.7992    161.34209   -97542.565    11671.192   -85871.372    330.72414    1316.1484    129647.96   -121966.24   -83382.822    37.913101 
  552000   -1852.5844    4661.5759    16826.616    4465.4938    151.80781   -97735.952     11680.16   -86055.792    330.97825    1266.3543    129207.22   -121988.86   -83669.531    38.099029 
  553000   -1845.5822    4684.0871    16829.186    4497.1665    147.36534   -97712.826    11851.489   -85861.337    335.83317    1622.3164    129475.87   -122025.05   -82797.961     38.07079 
  554000   -1893.6349    4739.6235    16847.819    4467.3215    170.96367   -97649.645    11630.053   -86019.592    329.55838    1654.8124    129992.77   -121981.74    -82882.38    37.932066 
  555000   -1914.2514    4801.1068    16876.374    4491.1274    149.52262   -97574.158    11711.987   -85862.171    331.88015   -8.0710238    129507.49   -121978.04   -85877.415    37.892978 
  556000   -1862.6038     4712.827    16808.545    4553.7201    157.28218   -97648.243    11655.014   -85993.229    330.26572    1178.6426    128903.11   -122018.01   -83777.476    37.903733 
  557000   -1810.6278    4682.0022    16753.282    4507.1356    147.02381   -97726.743    11604.022   -86122.721    328.82075    1678.2795    128973.74   -122005.56   -82965.961    37.752613 
  558000   -1843.6967    4775.5876     16803.26    4457.8382    161.65932   -97648.794    11686.657   -85962.137    331.16235    1482.1274    128906.88   -122003.44   -83175.775    36.813618 
  559000   -1897.6246    4769.4951    16906.844    4425.9363    148.44621   -97610.183    11593.061   -86017.122    328.51015    649.41378    129527.41   -121963.28   -84790.363    37.872615 
  560000   -1925.8323    4729.0158    16895.766    4452.0052    161.09559   -97681.538     11622.14   -86059.398    329.33415    2022.7606    129642.66   -121993.59   -82234.954    37.598464 
  561000   -1870.0309    4746.4326    16867.428    4508.2712    184.08824   -97523.282    11747.382     -85775.9    332.88311    2094.5742    129798.83   -121959.47   -81810.907    37.645446 
  562000   -1924.7925     4740.421    16862.821    4484.8194    166.59825   -97697.711    11647.419   -86050.293    330.05047    1749.1867    129062.42   -122027.58   -82757.898    37.535252 
  563000   -1810.5197    4688.5181    16843.344    4461.2274    153.26466   -97633.426    11704.154   -85929.272    331.65817    2556.8187    129488.97   -121969.26   -81100.812    37.529861 
  564000   -1866.6655    4715.4281    16830.935    4467.5856    149.83861   -97715.611    11590.867   -86124.744    328.44798    304.63902    129977.78   -122012.73   -85547.273    37.447192 
  565000   -1911.9129     4803.281     16882.64    4501.3072    157.34066   -97600.116    11699.586    -85900.53    331.52872    1203.4169    129421.11   -122032.77   -83629.112    37.882169 
  566000   -1907.7765    4703.5167    16766.246    4446.3368    159.13269   -97828.039    11693.148   -86134.891    331.34631    1742.0294    129526.41   -121995.49    -82844.18    38.035802 
  567000   -1877.7363    4724.9657    16855.263    4461.7722     152.2793   -97661.725    11512.381   -86149.344    326.22395    851.58318    129619.62   -121978.27   -84539.537    38.037203 
  568000   -1921.5141     4722.272    16927.782    4476.8164    151.90146   -97676.807    11723.494   -85953.313     332.2062    865.37187    129342.55   -122034.06   -84320.938    37.002913 
  569000   -1898.0447     4654.111    16854.049    4482.1974    181.71202   -97742.564    11624.778   -86117.785    329.40893    1718.9551    129343.81   -122016.59    -82875.24    38.188084 
  570000   -1853.4805    4671.9252    16873.728    4444.2687    175.22828   -97648.722    11617.118   -86031.604    329.19186    1595.3231    129386.73   -121960.39   -83021.273    37.526574 
  571000   -1822.1221    4708.7612    16777.213    4465.7176    158.56009    -97723.74    11675.505   -86048.235    330.84635    1488.6431    129066.79   -122011.87   -83246.152     38.13692 
  572000   -1863.9576    4779.2489    16749.435    4432.7758     151.0948   -97748.462    11578.789   -86169.673    328.10572    2273.1429    129758.64   -121997.06   -81867.985    37.127771 
  573000   -1908.7105    4763.5531    16946.815    4485.9847    147.20306    -97536.81    11700.408   -85836.402    331.55204    778.33122    129556.84   -121971.66   -84365.781    38.002534 
  574000   -1882.5964    4743.7813    16877.647    4487.8562    164.81856   -97622.817    11761.908   -85860.908    333.29475    1784.5487    128856.04   -122014.32   -82507.325    37.438355 
  575000   -1894.9365    4656.9582     16914.41    4477.3482    164.40783   -97686.805    11631.394   -86055.412    329.59638     2656.779     128701.9   -122004.99   -81068.677    37.945221 
  576000   -1797.6531    4823.4133    16947.463    4471.6326    159.33597    -97430.95    11610.035   -85820.916    328.99113    1584.7258    129352.06   -122035.14   -82831.382    37.547117 
  577000   -1882.8051    4773.4694    16780.969    4408.9229    144.36184   -97770.022    11449.171   -86320.851    324.43277    789.79166    129459.85   -121994.94   -84829.694    37.934448 
  578000   -1860.0791    4784.5741    16872.007    4406.0395     158.4528    -97608.29     11644.41   -85963.879    329.96523    1128.1066    128796.96   -121969.28   -83844.876    37.531747 
  579000   -1814.5959     4803.695    16853.887    4476.2474      159.853   -97562.343    11669.515   -85892.828    330.67661    1346.7142    129168.51   -122041.43   -83355.901    37.394414 
  580000   -1818.1712    4761.0827    16783.028    4442.6268    171.69377   -97654.461    11570.746   -86083.715    327.87782    1845.8071    128957.24   -121994.72   -82612.289    38.111203 
  581000   -1881.5705    4615.7255    16977.105    4477.0918    162.25753   -97612.217    11524.804   -86087.413    326.57596    2139.1838    128839.26   -121962.83   -82067.911    37.915142 
  582000   -1881.1787     4730.379    16841.407    4436.7392     173.8651   -97730.062    11678.521   -86051.541    330.93183    1027.6836    128581.07   -122031.27   -84124.405    38.017035 
  583000   -1881.6352    4740.5589    17006.806    4496.6502    164.83291   -97498.351    11623.096   -85875.254    329.36126    1579.0799    128925.95   -122025.56   -82906.185    37.556223 
  584000    -1869.127    4718.7656    16898.372    4435.1379     150.3809   -97683.114    11562.571   -86120.542    327.64617    2013.9108     128371.3   -122016.64   -82350.171    37.810361 
  585000   -1900.9513    4647.6873    16739.952    4554.4018    151.91554   -97821.861    11657.522   -86164.339    330.33677     990.7119    129248.26   -122014.87   -84296.893    38.094901 
  586000   -1845.6381    4661.4338    16816.827    4391.0886    159.83417   -97778.645    11651.447   -86127.198    330.16463    1742.2008    129115.94   -121962.19   -82846.593    37.720146 
  587000   -1851.7587    4762.8991    16937.398    4446.0172    160.58146   -97564.597    11723.191   -85841.406    332.19762    1863.6325    129150.02   -122019.73   -82331.216    37.974713 
  588000     -1875.42    4707.1569    16818.211    4527.5355     151.6704   -97618.159    11724.386   -85893.773    332.23149    1948.8271    129070.15   -121947.31   -82225.387    38.156597 
  589000   -1843.1317    4723.4661    16745.961    4473.0688    152.02178   -97766.672    11760.397   -86006.275    333.25191    1371.3166    129283.65   -122018.06     -83420.7    37.289403 
  590000   -1848.1173    4686.9099    16848.691    4440.4945    142.91667   -97747.628    11723.608   -86024.019    332.20945    1594.9333     129096.9   -122018.52   -83021.165    37.446171 
  591000   -1843.3503    4741.1576    16871.655    4488.8297    162.00042   -97591.817    11690.383   -85901.434    331.26794    1404.5032    129154.39   -122012.11   -83255.934    37.456722 
  592000   -1899.8953    4782.1217    16882.351    4461.5757    154.93625   -97608.843    11640.339   -85968.505    329.84985    1117.8245    129351.13   -121989.93   -83859.781    37.892867 
  593000     -1840.17    4691.3642    16945.017    4513.3386    170.33585   -97528.667    11634.463   -85894.204    329.68335    2094.1883    128843.27   -122008.55   -81959.126    37.336574 
  594000   -1869.6772    4673.5961    16776.268    4476.1574    168.52361   -97790.065    11663.198   -86126.867    330.49762    1798.3006    128774.31   -122014.93   -82749.584     38.01249 
  595000   -1891.4661    4778.9809     16840.29    4552.5335    157.90155   -97562.575    11507.951   -86054.623    326.09842    1577.2439    129236.76   -122000.81   -83081.857    37.162463 
  596000   -1792.9868    4671.9181    16842.076     4452.858    148.46183   -97613.394    11576.137   -86037.257    328.03059    1636.6808    128312.03   -121935.72   -82974.537    38.175841 
  597000   -1844.6966    4694.1133    16928.069    4524.6003    149.23467   -97525.342    11743.244   -85782.098    332.76587    1278.6377     129130.6   -121976.66   -83374.119    37.828721 
  598000   -1890.3227    4693.9929    16911.764    4570.2173    142.96908   -97584.674     11655.07   -85929.604    330.26728     967.3881    128844.96   -122013.29   -84111.812    37.986617 
  599000   -1820.1466    4830.3836    16928.125    4516.7691    151.90296    -97414.16      11655.7   -85758.459    330.28515    1467.5972    129165.29   -122021.19   -82993.883    38.399018 
  600000    -1905.273     4685.956    16830.742    4516.1753    143.62398   -97716.689    11631.325   -86085.363    329.59444    954.70563    128509.66   -121987.91   -84296.072    38.234035 
  601000   -1920.8467     4777.504    16904.913    4510.8233    150.19518   -97562.141    11735.273   -85826.868    332.53999    618.52982    128817.98   -121984.73   -84664.849    37.969237 
  602000   -1756.7644    4621.7547    16912.012    4523.3649    164.64936    -97523.86    11567.752   -85956.108    327.79298    2382.9563    128920.64   -121988.88   -81475.732     37.77484 
  603000   -1930.3625    4680.1705    16795.391    4524.1852    164.96811   -97745.645    11634.266   -86111.379    329.67777    949.93601    128856.31      -121980   -84326.224    37.852054 
  604000   -1892.9211    4739.8789    16832.326    4523.8384    162.41797   -97632.912    11713.529   -85919.384    331.92383    682.37093    129022.82   -121998.45    -84635.39    38.039263 
  605000    -1906.189    4719.8717    16817.001    4475.9742    154.45548   -97763.515    11505.311   -86258.204    326.02359    1401.8799    129397.88   -122024.63   -83612.667     38.38892 
  606000   -1858.7778    4757.4232    16756.477    4502.5854    163.79834   -97668.821     11713.34   -85955.481    331.91847    2151.0165    128429.36   -121990.33   -81926.604    37.660729 
  607000   -1954.3836    4666.3071    16954.042    4594.9597    149.37491   -97586.555    11676.173   -85910.382    330.86528    1634.1044    128744.37   -121996.86    -82842.18    37.856562 
  608000   -1896.3317    4651.2303    16857.734    4521.2612    156.14438   -97691.305    11782.184   -85909.121    333.86929    1840.1351    129569.23   -121981.34   -82431.938    38.022222 
  609000   -1835.1293    4721.8924    16821.027    4556.8647    161.04739    -97624.46    11452.096   -86172.363    324.51567    802.40618    129141.35   -122050.16   -84661.116    38.360712 
  610000   -1896.8761    4743.0699    16866.055    4496.4416    127.99059   -97687.604    11816.513   -85871.091    334.84207    1797.6506    128201.89   -122024.29   -82510.036    38.026249 
  611000   -1872.0954    4662.5138     16805.76    4445.1674    152.36786   -97751.069    11523.819    -86227.25    326.54807    1398.6411    129389.51   -121944.78   -83587.996    37.609589 
  612000   -1901.4451    4690.2275    16792.232    4490.1619    175.27649   -97769.349    11662.863   -86106.486    330.48811    2681.0652    128848.08    -122015.8   -81068.451    38.036682 
  613000   -1857.3166    4712.9391    16887.062    4517.9348    153.20817    -97582.16    11778.459   -85803.701    333.76373    1390.7131    128729.79   -121995.99   -83192.787    37.943505 
  614000   -1837.9838    4759.8358     16843.37    4402.5275    163.40867   -97673.338    11640.153   -86033.185    329.84459    2256.6842    128912.91    -122004.5   -81790.477    38.458916 
  615000   -1868.2859      4819.16    16864.529    4469.0882    159.07594   -97573.272    11802.207   -85771.065    334.43669    581.46276    129427.77   -122016.84   -84673.512    38.132421 
  616000   -1886.3803    4807.1522    16931.219    4443.0541    169.17301    -97525.43    11630.827   -85894.603    329.58033    2351.2592       128732   -121989.65   -81480.292     37.89718 
  617000   -1857.5078    4732.6606    16769.542    4475.5027    143.98764   -97721.433    11686.874   -86034.558    331.16852     1475.891    128174.42   -121985.62   -83275.687    38.044662 
  618000   -1842.8297    4723.9765    16803.229     4447.676    145.09373   -97731.603    11557.036   -86174.567    327.48932    1778.2527    129092.77   -122008.75   -82826.676     37.42163 
  619000   -1818.2417    4698.7155    16907.919    4406.3051     146.8811   -97690.885    11561.255   -86129.631    327.60886    1206.8614    129285.66   -122032.46   -83854.095    38.121636 
  620000   -1928.5434     4693.275    16950.726    4462.2689    161.18313   -97689.324    11629.552   -86059.772    329.54418    1430.1073    128705.64   -122028.23   -83375.404    38.055656 
  621000   -1857.5061    4734.6477    16821.297    4478.9322    165.14149   -97641.228    11670.792   -85970.436     330.7128    1914.7406    128491.92   -121983.74    -82382.36    37.809513 
  622000   -1914.9985    4768.5398    16963.141    4486.3792    165.09318   -97537.823    11583.063    -85954.76    328.22685     1428.646    129046.08   -122005.98   -83266.041    38.010179 
  623000   -1885.9853    4835.6564    16804.806    4439.3982    164.05831   -97647.383    11725.178   -85922.205    332.25392    1737.7428    128725.01   -122005.32   -82659.902    37.402018 
  624000    -1834.788    4744.7963    16682.266    4433.4745    165.34306   -97772.714    11572.531   -86200.183    327.92839    393.84229    128757.52   -121963.81   -85460.628    36.932526 
  625000   -1885.5683    4776.6682    16869.446    4469.1277    139.83659   -97629.387    11648.824   -85980.564    330.09029    361.07999    129646.43    -121998.9   -85297.848    37.591081 
  626000   -1976.0993    4794.6666    16865.419    4497.1724    155.29458   -97666.514    11763.411   -85903.103    333.33733   -153.12088     128944.4   -122002.97    -86191.05      37.3817 
  627000    -1927.088    4748.2317    16840.451    4476.6739    166.60249   -97687.945    11489.917   -86198.028    325.58738    1474.5193     128674.1   -121992.82   -83430.975    38.005993 
  628000   -1823.2775    4758.6464    16890.075    4420.0078    153.09667   -97583.269    11714.096   -85869.174    331.93989    2339.6155    128357.54   -121981.82     -81489.5      37.7131 
  629000    -1836.159    4659.6292    16831.154      4347.52    143.58171   -97819.458    11742.382   -86077.075    332.74145    965.12561    129225.29   -121965.18   -84258.182    37.531299 
  630000   -1874.4299    4831.2086    16784.289    4448.9741    165.64692    -97625.81    11612.616   -86013.194    329.06427    832.92535    129581.27    -121981.5   -84439.124    37.289056 
  631000   -1884.7439    4685.6431    16722.397    4474.9384    167.02987   -97813.917    11605.905   -86208.013    328.87411    1897.8579    129167.39   -121979.18   -82632.877    37.555917 
  632000   -1875.0387    4775.6812    16873.495    4419.5768    160.39535   -97653.861    11714.866   -85938.994    331.96173    1097.0371    128869.89   -122007.97   -83877.184    37.431945 
  633000   -1893.3102    4748.1965    16845.776    4454.3505    159.93667   -97680.224    11540.472   -86139.752    327.01995    270.55136    129109.74   -121995.17   -85630.322     37.39781 
  634000   -1870.0941    4689.5711    16809.368    4468.4722    163.29809   -97745.745    11739.057   -86006.688     332.6472    683.00968    128677.59   -122006.36   -84724.932    37.175604 
  635000    -1917.179    4700.4688    16898.723    4419.0044    145.86522   -97736.977    11810.603   -85926.374     334.6746    960.12444    128935.64   -121983.86   -84120.962    37.800965 
  636000   -1908.5812    4701.5262    16932.995    4484.5066    167.25698   -97607.546     11604.74   -86002.806     328.8411    1232.7253    128693.92   -121985.25   -83689.142    37.978024 
  637000   -1903.8285    4661.4315    16833.276    4457.6161    163.85337   -97749.172    11662.058   -86087.114    330.46531    1052.9769    128858.95   -121961.52   -84108.281    37.856611 
  638000   -1899.5186    4807.8122    16788.665     4479.136    143.05317   -97692.325    11865.424   -85826.901    336.22805    1639.7528    128603.72   -122011.47   -82751.457    37.936628 
  639000   -1919.8585     4759.826     16796.27    4495.3901    165.78974   -97710.036    11745.232   -85964.804    332.82219    1018.7357    128473.93   -122007.45   -84056.039    37.879979 
  640000   -1876.0667     4759.397    16759.918    4478.8686    159.25508   -97662.543    11679.604   -85982.939     330.9625    1998.8955    129053.39   -121943.91   -82220.795    37.682424 
  641000   -1972.5981    4739.9087    16884.341    4451.9397    138.48076   -97777.175    11502.326   -86274.848    325.93902    858.58916    128891.89   -122019.25    -84660.91    37.917159 
  642000   -1919.1579    4900.1981    16931.508    4455.6347    141.95692   -97508.707      11611.2   -85897.507    329.02414    1044.2489    128188.41   -122018.85   -83945.288    37.548423 
  643000   -1880.4927    4763.3258    16737.331    4367.7125    144.22509   -97841.145    11689.799   -86151.346    331.25141    1460.0023    128560.39   -121973.25   -83413.956     38.24527 
  644000   -1893.5509    4822.4259    16939.073    4477.6574    156.60737   -97465.813    11658.698   -85807.115     330.3701    1321.6156     128325.3   -121968.03   -83333.721    38.242661 
  645000   -1911.6645    4769.2578    16808.186    4477.7275    137.57114   -97741.527    11612.115   -86129.412    329.05009     1774.259    128641.92    -122022.6   -82800.706    37.940247 
  646000   -1837.9981    4765.4162    16842.301    4361.7972    151.00368   -97728.523    11732.845   -85995.678    332.47118    1569.9619    129148.66   -122011.04   -83038.654    38.423003 
  647000   -1922.5244    4719.2898    16799.126    4468.9553    143.40441   -97868.575    11643.465    -86225.11    329.93844    854.45052     128975.6   -122076.83   -84617.909    37.841259 
  648000   -1930.0213    4686.3772    16959.237    4520.2705    164.81917   -97575.102     11653.42   -85921.682    330.22054    1790.6424     128339.7   -121975.78   -82570.131      37.8994 
  649000   -1901.4353    4719.7233    16875.516    4437.4926    154.12416   -97680.393    11568.609   -86111.783    327.81728    1524.0263    128619.88   -121965.81   -83253.031    37.601109 
  650000   -1922.7743    4715.0653    16831.812    4500.9864     152.8184   -97722.973    11519.243    -86203.73    326.41839    1689.1227       128477   -122000.88   -83038.812    37.868192 
  651000   -1861.4165    4649.0294    16835.052    4493.4686    148.92444   -97719.693    11684.498   -86035.195    331.10118    2161.8467    128966.52   -121984.75   -81969.097    38.369388 
  652000   -1943.0285    4779.0436    16919.784    4440.9935    149.78039   -97693.751    11727.314   -85966.437    332.31444    1171.4286     128627.2   -122040.32   -83768.959    38.261758 
  653000   -1908.5903    4758.6351    16711.911    4492.8799    163.81097   -97786.378    11697.694   -86088.684    331.47511    2039.1442    128505.78   -122005.02   -82267.073    37.942487 
  654000   -1893.4276    4636.7923    16870.121    4433.8353    151.02086   -97749.283     11399.07   -86350.213    323.01307    1361.7662     128772.8   -121947.63    -83792.79    37.475037 
  655000   -1902.7858    4704.1131    16775.625    4452.7812    166.84732   -97756.984    11759.615   -85997.369    333.22977    2201.4384    128730.11   -121953.57   -81864.396    37.771424 
  656000   -1870.0529    4652.2205    16774.383    4452.9282    147.17134   -97785.745    11896.329   -85889.416    337.10379    2753.7858    128203.93    -121942.4     -80740.6    37.293255 
  657000    -1908.245    4748.8316      16877.4    4404.1435    174.22246   -97699.868    11588.883   -86110.985    328.39178    1751.2102    128445.25   -121996.22   -82830.544    37.585507 
  658000   -1854.6327    4715.2654    16865.562    4401.4961    169.43223   -97646.178     11573.23   -86072.948     327.9482    1217.3818    129120.27    -121943.3   -83780.513    37.621168 
  659000   -1890.3544    4753.6463    16825.132    4490.1465    147.18806   -97672.563    11739.363     -85933.2    332.65588    1384.5692    128898.23   -121998.32   -83330.419    37.691221 
  660000   -1961.7939    4648.6278     16771.11    4473.9912    163.59018   -97888.645     11751.72   -86136.925    333.00604    1778.8892    128424.72   -121984.17   -82805.167    37.499055 
  661000   -1878.3541    4667.8405    16810.026    4492.9108    155.84911   -97777.969    11907.592   -85870.377    337.42295    1984.3413    128114.28   -122026.24   -82162.804    37.555926 
  662000   -1885.2741    4717.0105    16844.811    4453.4424    145.43895   -97680.244    11538.801   -86141.443    326.97259    973.57131    128603.83   -121955.67   -84315.456    37.920726 
  663000   -1893.1651    4824.3131    16746.982     4488.699     164.8126   -97678.861      11664.5    -86014.36    330.53452    366.65224    128777.45    -122010.5   -85325.755    36.867091 
  664000   -1887.2285    4785.4856    16824.694    4407.3093    146.55733   -97677.441    11562.821    -86114.62    327.65324   -138.45359    129101.18   -121954.26   -86375.302    37.467467 
  665000   -1962.2204    4701.8818    16872.336    4517.5712    154.14224   -97727.477    11734.603   -85992.874    332.52101    1012.2359    128291.21   -122011.19   -84098.985    38.139438 
  666000   -1928.6684    4858.4925    16875.766    4474.8463     159.0073   -97559.767     11621.89   -85937.877    329.32708    1342.9346    128539.53   -121999.21   -83420.389    38.148314 
  667000    -1940.863     4657.479    16855.435    4499.3247    147.04465   -97787.235    11781.173   -86006.062    333.84064    421.66151    128449.48   -122005.66   -85216.162    37.874537 
  668000   -1887.7183    4780.0448    16786.397    4464.2008       142.01   -97702.658    11712.836   -85989.822    331.90419    1911.5953     128254.7   -121987.59   -82414.253    37.521867 
  669000   -1891.1188    4712.7455    16834.772    4474.2855    146.52349   -97732.351    11609.808   -86122.543    328.98472    1620.8772     128369.9   -122009.56   -83088.028    37.818701 
  670000   -2005.1063    4795.7629    16942.709    4607.8678    150.08513   -97503.075    11819.825   -85683.249    334.93593    471.21007    128018.87   -121994.39   -84803.489    37.860182 
  671000   -1945.0148    4757.1422    16920.434     4431.449    158.27906   -97675.807    11698.091   -85977.716    331.48636    1216.7873    128295.32    -121998.1   -83701.039    37.581839 
  672000   -1847.9028    4750.2051    16814.986    4404.1138    172.69341   -97721.678    11481.561   -86240.117     325.3506    1966.2445    129183.72   -122015.77   -82535.689    37.707095 
  673000   -1907.2284    4775.7528    16733.993    4483.5593    185.29126   -97742.048    11640.862   -86101.186    329.86467    1691.9755    128376.06   -122013.42   -82933.414    37.852655 
  674000   -1936.7569    4836.5068    16867.869    4492.8897     148.7357   -97598.464    11620.441   -85978.023    329.28603    1483.7707    128573.11   -122007.71   -83195.794    37.362341 
  675000   -1923.1743    4805.2419    16850.823    4446.8746     171.2073   -97686.035    11635.794   -86050.241    329.72108   -33.992303    129725.43   -122037.01   -86114.551    37.477441 
  676000   -1871.6684    4785.2562    16920.983    4437.0085    150.55735   -97593.371    11733.497   -85859.874    332.48967    1803.7871    128490.88   -122015.51   -82479.744    37.373965 
  677000   -1887.0448    4723.5706    16825.538    4406.4497    156.36975   -97797.837    11616.285   -86181.552    329.16824    442.35443    128781.02   -122022.72   -85350.749    37.236294 
  678000   -1868.4917    4711.0414     16801.34    4473.3063    158.51684   -97748.661    11441.509   -86307.152    324.21566    1672.3181    128557.11   -122024.37   -83171.767    37.639789 
  679000   -1869.2181    4647.4703    16904.177    4436.4421    146.67867   -97722.891    11674.965   -86047.927    330.83104    2526.4305    128257.99   -121988.44    -81322.21    37.403033 
  680000   -1820.6917    4713.3725    16893.091     4412.013    155.12245   -97689.493    11536.016   -86153.478    326.89368    2266.4474    128738.28    -122042.4   -81898.187    38.170909 
  681000    -1878.158    4718.4812    16838.162    4406.4658    157.64414   -97815.686    11763.799   -86051.888    333.34831    1384.0984    128027.95   -122058.28    -83467.56    37.365632 
  682000   -1887.1458    4695.0128    16863.331    4443.4061    150.23696   -97715.598    11674.293   -86041.305    330.81201    2305.7788    128588.26   -121980.44   -81717.213    37.753435 
  683000   -1901.4945    4662.0613    16857.219    4469.1952    150.74904   -97754.905    11548.035   -86206.869    327.23427    1796.2347    128173.81   -121992.64   -82849.197    37.914791 
  684000   -1886.1237    4721.9747    16836.881    4525.1273    150.88976   -97660.423    11656.486   -86003.937    330.30742    1123.6504    128914.37   -122009.17    -83891.38    37.842703 
  685000   -1872.0144    4730.8472    16891.567    4481.5296    162.51874   -97600.217    11655.982   -85944.234    330.29314    2424.4571    128296.59   -121994.66   -81407.895    37.573935 
  686000   -1886.5463    4743.8021    16794.263    4479.8783    158.04274   -97699.732     11626.15   -86073.582    329.44778    1440.9796    129019.17   -121989.17   -83362.217    38.046058 
  687000   -1931.9904    4668.5334    16906.231    4563.6413    166.12232   -97610.446    11755.931   -85854.515    333.12538    1046.6057    128466.58   -121982.98   -83893.644    37.547597 
  688000   -1890.4275     4674.784    16828.048    4421.0488    151.74179   -97796.592     11687.75   -86108.842    331.19334    1514.6714    128634.86   -121981.79   -83267.307    37.742728 
  689000   -1830.4976    4739.2567    16846.264     4442.076    162.76706   -97639.543    11722.975   -85916.568     332.1915    1445.3514    129065.13   -121999.41   -83196.009    37.999807 
  690000   -1879.5501    4623.5988    16855.343    4500.5794    146.36701   -97751.014    11714.351   -86036.663    331.94713    2650.3068    128509.33   -121997.35    -81069.52    37.921789 
  691000   -1826.3451    4760.8688    17005.524    4378.7918    145.06991   -97543.359    11640.202   -85903.157    329.84598      1126.08    128767.45   -122007.27   -83788.445    37.663199 
  692000   -1850.0838      4625.77    16824.844    4418.6212    134.84511   -97824.592    11713.705   -86110.887    331.92881    1448.0506     129122.7   -121978.59   -83384.031    38.053578 
  693000   -1897.0977    4792.8688    16760.462    4445.3052    157.46504   -97768.145    11658.724   -86109.422    330.37082     524.5926    128989.43   -122027.15    -85122.57    37.711739 
  694000   -1851.4768    4811.7384    16883.038    4385.0442    161.64723   -97540.756     11753.98   -85786.776    333.07008    1092.1568    128998.24   -121930.75   -83732.094    37.955479 
  695000   -1908.7032    4755.8191    16876.911    4426.5507    155.41656   -97687.255     11603.69   -86083.565    328.81134    1715.5156    129313.56   -121993.25   -82848.264    37.806612 
  696000    -1780.255    4649.4953    16836.418    4333.2584    146.37603   -97843.849    11650.815   -86193.035    330.14671    1723.4632    129302.95   -122029.14   -82943.012    37.706192 
  697000   -1829.4612    4875.4619    16842.107    4423.5967    169.04942   -97495.445    11613.723   -85881.722    329.09565    527.85558    129435.13    -121976.2     -84885.3    38.002577 
  698000   -1857.2258    4696.2553    16869.371    4411.2023    163.53439   -97671.149     11599.28    -86071.87    328.68637    1618.9281    128886.87   -121954.29   -83028.799     37.84204 
  699000   -1891.2062    4714.6662    16910.256    4460.0028    173.24289   -97626.772     11687.13   -85939.642    331.17578    2625.7763    128529.89   -121993.73   -81017.685    37.848803 
  700000   -1832.6903    4732.5785    16782.596    4421.5174    164.28588   -97749.754    11703.294    -86046.46    331.63381    1536.9036    128684.54   -122018.04   -83162.104    37.287517 
  701000   -1841.7202     4706.858    16852.742     4392.643     153.2446   -97681.056    11493.638   -86187.419    325.69282    604.92978     129210.7   -121944.82   -85047.486    38.051338 
  702000   -1787.4362    4750.6359    16852.657    4419.3542    149.65507    -97616.67    11630.239   -85986.431    329.56367    2045.0461    128889.69   -122001.54   -82142.309    37.562337 
  703000   -1902.7785    4674.8542     16844.71    4470.2326    165.04744   -97756.299    11628.987   -86127.313    329.52818    1491.1806    128758.39   -122008.36    -83327.16    37.460691 
  704000   -1852.9763    4762.7746    16833.179    4457.1632    169.13579   -97629.677    11615.103   -86014.575    329.13474    1594.4467    129007.31   -121998.95    -83014.72    36.979467 
  705000   -1878.6692    4659.2846    16901.839    4417.5693    151.52949   -97745.635    11636.124   -86109.511    329.73042    1305.2928    129041.43   -121997.19   -83653.032     37.77686 
  706000    -1834.893    4700.5125    16895.076    4387.7904    166.18717   -97650.391    11680.044   -85970.347    330.97497    2340.0471    129326.12   -121965.06   -81556.811    37.656185 
  707000   -1864.0037    4752.8953    16836.882    4372.4124    144.69718   -97777.944    11584.947   -86192.997    328.28022    1188.8826     129267.4   -122020.83   -83951.677     37.58149 
  708000    -1894.594    4803.2586    16886.888    4443.1208    163.17303   -97568.226    11690.006    -85878.22    331.25726    1325.7376    129081.14   -121970.07   -83382.497      37.9098 
  709000    -1913.828    4753.8018    16858.366    4430.2642    153.75678   -97721.186    11584.463   -86136.723    328.26651    970.83247    128646.04   -122003.55   -84315.276    37.444699 
  710000   -1844.5225    4765.1353    16801.519     4464.375    155.84025    -97687.87    11756.353   -85931.517    333.13733    1745.0715    128633.41   -122030.22   -82657.787     37.94528 
  711000   -1835.6181    4760.0712    16887.516    4443.3498    147.68101   -97593.407     11554.01   -86039.397    327.40357    1099.7502    128395.92   -121996.41    -83980.09    37.907589 
  712000   -1912.4054    4669.3219    16967.551    4468.7205    149.52731   -97634.175    11611.104   -86023.071    329.02144    1719.2126    129187.08   -121976.89   -82783.969    37.994721 
  713000   -1884.3628    4638.8239    16845.691     4485.842    163.61411   -97722.305    11644.261   -86078.043    329.96101    1144.6944    129427.06   -121971.91   -83917.363    37.748028 
  714000   -1889.0915    4686.4406     16914.24    4444.6986    154.84612   -97676.068    11754.033   -85922.034     333.0716    1617.1863    128817.85    -121987.2   -82883.865    37.091917 
  715000   -1893.2795    4644.2661     16917.32    4498.3422    155.72582   -97699.905    11661.565   -86038.341    330.45134    1268.4004    128749.08   -122022.28   -83656.699    37.261599 
  716000   -1872.7346    4736.2049    16961.996    4424.6873     168.0461   -97607.647    11632.054   -85975.592     329.6151    2144.8587    128943.79   -122025.85   -81942.158    37.615093 
  717000   -1865.1376    4717.9316    16890.277    4503.5599    161.27695   -97564.889    11503.567   -86061.322    325.97419    1695.3174    128756.07    -121972.8   -82877.897    37.137171 
  718000   -1824.6818    4812.5278    16874.686    4461.9716     159.1604   -97507.499    11592.929    -85914.57    328.50642    2102.3156    128679.83   -121991.16   -81969.231     38.24037 
  719000   -1841.7281    4781.1529    16795.744    4382.1326    148.09105   -97737.223    11592.429   -86144.794    328.49225    1695.7109    128993.82   -122002.62    -82954.75    37.787617 
  720000   -1869.3945    4686.6343    16843.442    4529.1014    154.74483   -97688.851    11622.613   -86066.238    329.34756    2495.4237    128993.27   -122033.38    -81371.76     37.84906 
  721000   -1894.8532    4681.5091    16790.835     4458.228     167.1955   -97759.344    11624.686   -86134.657    329.40632    1251.4988    128733.05   -121962.26   -83785.044    37.861769 
  722000   -1876.8583    4704.3353    16778.328    4479.7998    161.28254   -97757.065    11582.069   -86174.996    328.19866     2164.195    128705.45   -122003.95   -82112.722    37.784009 
  723000   -1945.1735    4640.5629    16757.993    4550.4758     196.6816   -97785.247     11653.78   -86131.467    330.23072    1735.0521    129028.91   -121985.79   -82866.526    37.359647 
  724000   -1859.3263    4671.7349    16961.867     4442.737    183.13673   -97612.473    11568.789   -86043.684    327.82236    1604.4589    128825.51   -122012.62   -83029.246    37.511979 
  725000   -1937.2187    4674.4763    16918.879    4465.4124    144.11354   -97712.491    11652.329   -86060.162    330.18962    2403.7406    128804.83   -121978.15   -81544.768    36.990068 
  726000   -1874.8249    4733.1584    16812.802    4495.4944    146.16889   -97663.775     11695.58   -85968.195    331.41523    2211.4818    128411.15   -121976.57   -81826.654    37.860039 
  727000   -1894.3868    4612.9472    16868.623    4489.0189    164.44594   -97764.542     11547.16   -86217.382    327.20948    1165.3943    128859.75   -122005.19   -84027.271    37.234976 
  728000   -1864.5609    4677.3235     16889.65    4518.5275    172.26873   -97626.345    11573.511   -86052.833    327.95618    1895.4746     128656.5   -122019.55    -82496.31    37.549163 
  729000   -1838.1635    4731.2153    16796.248    4480.0515     156.3915   -97625.488    11325.517    -86299.97    320.92883    759.52063    128287.91   -121951.23   -84878.947    36.659318 
  730000   -1885.9434    4784.0425    16826.645     4494.554    146.00284   -97639.194    11792.043   -85847.151    334.14866    1269.1675    128980.97   -122004.49   -83459.777    37.687375 
  731000   -1911.2547    4817.0244    16919.914    4472.1785    152.70514   -97569.426    11500.155   -86069.271     325.8775   -30.631321     129042.4   -122019.99   -86126.917    37.324456 
  732000   -1912.5397    4866.3582    16895.109    4474.1393    152.20475   -97469.214    11659.551   -85809.663    330.39427    1947.6893     128709.5   -121944.49   -82153.663    37.262025 
  733000   -1902.1606    4639.0853    16864.927    4493.8847    166.11646    -97705.91    11640.105   -86065.805    329.84324    808.01081     129268.1   -121967.76   -84542.508    37.987588 
  734000   -1813.4271    4694.8553        16844    4478.5854    149.26822   -97649.337    11636.571   -86012.765     329.7431    1601.6479     128952.8   -122002.62   -83000.635     37.91602 
  735000   -1866.5545    4674.8014    16894.105    4488.9634    165.13078   -97678.465    11492.076   -86186.388    325.64858    2645.3835    128997.42   -122034.91   -81209.642    37.483929 
  736000   -1900.5521    4727.5981    16909.322    4499.3722    173.91492   -97561.337    11643.747    -85917.59    329.94645    1404.0781    129226.58   -121970.99   -83271.412    37.361864 
  737000   -1881.9456    4794.3848    16790.363    4501.9435    168.01997   -97615.186    11725.548   -85889.638    332.26442    1648.8342    128830.93   -121987.95   -82791.698    37.447555 
  738000   -1935.0749     4689.303    16926.664    4492.7923    153.50516   -97677.956     11760.26   -85917.696    333.24803    1241.3944    129166.95   -122005.15   -83579.197    37.794842 
  739000   -1871.2618    4745.5406    16831.584    4491.3493    166.38519   -97647.539    11677.008   -85970.531    330.88894    1395.6127    129010.06   -122011.14   -83344.715    37.675852 
  740000   -1900.2531    4764.8909    16694.658    4440.5041     147.3231   -97828.872    11668.015   -86160.857    330.63412    2303.2123    128284.99   -121975.99   -81851.766     37.89947 
  741000   -1901.0343    4683.2441    16960.892    4499.4013    153.82431   -97607.013    11611.559   -85995.454    329.03433    1785.8129    128460.91   -122003.34   -82649.786    37.959135 
  742000     -1944.89    4767.0658    16884.509    4490.7944    155.31522   -97627.735    11698.438   -85929.297    331.49619    1687.8621    128723.53   -121980.53   -82760.673    37.640079 
  743000   -1911.9758    4636.5046     16839.09    4513.3175    162.69543   -97734.627    11610.726   -86123.901    329.01073    771.21914    128539.27   -121974.26   -84678.163    37.827162 
  744000   -1856.6936    4751.8531    16906.877    4460.2892    143.43431   -97648.954    11812.733   -85836.221    334.73495    2841.6717    128153.14   -122054.71   -80525.188    37.264822 
  745000   -1924.9188    4767.5548    16863.423    4464.9111    159.90239   -97659.827    11731.487    -85928.34    332.43272    1403.0303    128193.57    -121990.7   -83305.274    38.340939 
  746000   -1870.5188    4764.9128    16810.512    4494.3478    159.91182    -97662.95    11531.164   -86131.787    326.75618    1315.2646    128379.09   -122022.12   -83669.247    37.474564 
  747000   -1912.6664    4837.3986    16878.338    4439.5192    152.17356   -97621.503    11757.429   -85864.074    333.16781    904.21025    129209.71   -122016.27   -84160.189    37.791358 
  748000   -1907.7707    4830.3125    16851.521    4451.1979    146.10975   -97594.399    11462.631   -86131.768    324.81419     1384.314    128922.67   -121965.77   -83528.974    37.619868 
  749000   -1879.7659    4689.9108    16776.109    4404.7733    179.52091   -97831.659    11747.774   -86083.886    332.89422    2051.5824    128761.81   -122002.21   -82231.303    37.627585 
  750000   -1911.9493    4834.8317    16898.261    4439.0669    166.81503   -97588.647    11645.072   -85943.575    329.98399    1456.6702    128692.81   -122015.67   -83209.619    38.318246 
  751000    -1926.807    4679.7151    16942.727    4441.9903    153.13092   -97736.858    11554.449   -86182.409    327.41602      2040.86    129224.45   -122027.61   -82336.192    37.966617 
  752000    -1887.593    4792.8411    16829.295    4376.9894    147.62651   -97740.533    11599.485   -86141.048    328.69219    1598.3214    128883.52   -121999.69   -83136.788    37.743378 
  753000   -1884.7448    4850.0421     16810.91    4432.0939    143.92022   -97654.971    11710.031    -85944.94    331.82471    734.32215    129371.89   -122007.19   -84559.453    37.848839 
  754000    -1905.888    4753.1299    16916.002    4466.7787    145.42789   -97600.089    11563.817   -86036.271    327.68149    1635.4504    128759.32   -121975.54   -82965.185    37.667506 
  755000   -1923.7511    4712.1856    16957.399    4412.9778    158.01363   -97644.121    11616.084   -86028.037    329.16254    1225.4024    128698.31   -121960.95   -83728.039    37.701596 
  756000   -1852.8291    4690.7261    16922.533     4441.912    156.80602    -97673.77    11614.669   -86059.101    329.12245    1624.5039    129210.05   -122032.92   -82997.892    37.769498 
  757000   -1959.3979    4699.6685    16821.776    4448.2784      160.125   -97788.097     11603.71   -86184.387    328.81192    2013.0408    128146.77   -121958.55   -82422.237    37.806316 
  758000   -1886.3674    4796.2152    16831.668    4460.4656     156.2287   -97610.718    11650.008    -85960.71    330.12386    1489.3567    128847.85   -121968.93   -83162.039    37.404325 
  759000   -1933.7875    4730.7315    16770.509    4512.8948    154.93566   -97758.182    11630.982     -86127.2    329.58472    2091.5276    128841.25   -121993.47   -82197.183    38.348444 
  760000   -1880.7565    4731.8734    16832.776    4531.8346     158.7327   -97617.234    11737.432   -85879.802    332.60117     1594.672    128955.83   -121991.69   -82880.721    38.067491 
  761000   -1919.2267    4656.2064    16870.528    4450.5387    148.13745   -97780.296    11659.382   -86120.914    330.38947    1293.0786    128788.58   -121986.48    -83692.19    37.989213 
  762000   -1925.4442    4726.3898    16860.048    4485.3439    156.76582   -97693.211    11584.089   -86109.122    328.25592    1419.9739    128349.47   -121996.31   -83451.151    37.842937 
  763000   -1901.5955    4733.3408    16894.792    4470.9265    168.10627   -97659.942    11565.139   -86094.803    327.71893    1425.2712    129147.19   -122025.51   -83410.334    38.215129 
  764000   -1922.2012    4746.7145    16875.295    4474.3314    147.02106   -97644.457    11750.666   -85893.791    332.97618    247.31543    128346.87   -121965.62   -85430.864    38.103149 
  765000   -1937.5654    4801.3836    16822.992    4514.3781    157.68956   -97661.675    11688.292   -85973.383     331.2087    1575.1097    128594.06   -122020.55   -83019.403    37.894699 
  766000   -1896.0635    4619.4064    16958.116    4438.3598    149.61534   -97725.051    11599.509   -86125.542    328.69288    1992.5314    128515.96   -121994.49   -82390.993    38.218395 
  767000   -1885.1037    4749.3405      16872.1    4504.5827    167.25887   -97572.084    11511.097   -86060.987    326.18755    986.46766    128772.03   -121980.26   -84208.393    38.239328 
  768000   -1926.7079    4716.0102    16779.208    4514.0828    160.87951   -97805.563    11772.902   -86032.661    333.60627    1733.7989    128009.99   -122049.04   -82795.842    36.913685 
  769000   -1909.9983    4839.6776    16877.131    4490.5116    156.11183   -97563.354     11500.86   -86062.494    325.89748    715.97675    128841.67   -122016.79   -84717.157     37.25164 
  770000   -1941.5483    4774.2185    16970.714     4399.951    181.27828   -97600.536    11445.269   -86155.267     324.3222    830.52438    129246.86   -121985.15   -84589.784    37.780439 
  771000   -1843.3826    4665.3727    16906.928    4398.3427    170.01269   -97675.648    11680.953   -85994.695    331.00073    2021.0362    129159.16   -121972.92   -82187.762    38.282034 
  772000   -1940.8016     4733.279     16695.12    4492.3953    163.99808    -97828.29    11622.363   -86205.927    329.34048    1786.2408    129086.82   -121972.28   -82843.152    38.141026 
  773000   -1843.2183    4752.8893     16881.01    4493.1281    165.55616    -97577.32    11446.638   -86130.682      324.361     1544.028    128600.98   -122026.69   -83234.836    38.038074 
  774000   -1821.7946    4783.4824    16887.895    4514.4269    166.54451    -97431.87    11468.563   -85963.306    324.98228    100.97147    129361.22   -121962.42   -85772.814    37.983136 
  775000   -1810.5233    4642.0334    16803.607    4433.2789     163.5077   -97772.532    11535.547   -86236.985     326.8804    2351.3409    128443.55   -122004.44   -81832.412    37.776982 
  776000   -1897.0648    4714.1494    16822.573    4525.1648    171.10719   -97659.684    11658.498   -86001.186    330.36444    1713.7713    129262.09   -121995.61   -82770.461    37.852247 
  777000    -1921.533    4721.4543     16805.95    4538.2738    145.45567   -97663.494     11622.35   -86041.144    329.34011    1454.8926    129106.85   -121953.09   -83301.739     37.18099 
  778000   -1827.4398    4748.0561    16772.114    4452.2448    146.18493   -97704.048    11584.075   -86119.974    328.25552    1076.4232    128947.09   -121995.21   -84095.694    37.523668 
  779000   -1858.3379    4721.6379    16878.552    4527.8637    161.33057    -97594.57    11596.925   -85997.645    328.61965    1569.3817    129057.24   -122025.62   -83043.806    38.107078 
  780000   -1929.9951    4725.6971    16873.492    4587.0851    157.11382   -97579.655    11727.586   -85852.069    332.32216    2350.7128    128860.34   -121993.05   -81434.384     37.47944 
  781000   -1934.8683    4728.2167    16851.136    4480.2242    132.64544   -97687.731    11782.342    -85905.39    333.87376    1285.4298    128602.06   -121945.09   -83494.529    37.749641 
  782000   -1853.6609    4821.9484    16809.039     4508.881    151.04976   -97597.471     11540.45   -86057.022    327.01932    1649.8831    129370.54   -122034.73   -82944.127    37.651844 
  783000   -1879.3226    4747.5252    16852.359    4429.1986    160.42465   -97684.743    11816.238   -85868.505    334.83428    1233.6201    129261.16   -121994.93   -83542.957    37.904715 
  784000   -1862.9437    4667.8896    16802.002    4557.9973    155.27356   -97685.057    11621.338    -86063.72    329.31143    2011.1457    127755.06   -122005.28     -82316.6    37.807725 
  785000   -1872.0154    4653.8124    16757.028    4432.2612    156.39721    -97835.05    11586.187   -86248.863    328.31538     1026.489    128843.89   -121962.53   -84320.033    37.662944 
  786000   -1882.6773    4672.4834    16872.949    4531.9061    163.49492   -97634.886    11627.695   -86007.191    329.49158    820.25252    129086.47   -121993.04   -84462.988    37.431871 
  787000   -1881.9939    4678.2075     16997.88    4414.3747    151.65375   -97630.721    11560.138   -86070.584    327.57722    1007.8011    128837.69   -121990.84    -84176.96    38.042335 
  788000   -1833.3039    4723.0395    16792.674     4350.542    162.96175   -97754.318    11474.843   -86279.475    325.16023    1862.3061    128720.12   -121950.23   -82783.459     37.35909 
  789000   -1913.0048    4655.9338    16886.453    4476.1828    168.18954   -97763.007     11617.76   -86145.247    329.21004    2050.5081    128166.22   -122036.76   -82312.493    37.507426 
  790000   -1847.1001    4851.5456    16799.166    4436.8163    146.30774   -97587.682    11648.489   -85939.193    330.08082    1385.3321    128733.68   -121974.42   -83338.303     37.90097 
  791000   -1911.8784    4657.0702    16834.229    4451.0393    146.60644   -97775.535    11555.698   -86219.837    327.45141    1155.1896    128698.33    -121952.6   -84051.624    37.302542 
  792000   -1878.4861    4665.4201    16950.656    4437.1772    160.63087   -97624.208    11631.699   -85992.509    329.60503    1880.6424    128616.62   -121959.61    -82464.91    37.074519 
  793000   -1835.1886    4781.3273    16784.168    4391.0618    150.80486   -97678.518    11662.688    -86015.83    330.48315    2203.1047    129299.55   -121950.69   -81861.433      36.9908 
  794000   -1870.0301     4836.041     16793.59    4394.9808    173.43697     -97692.2    11793.725   -85898.475    334.19633      1756.47    129078.77   -122020.22   -82591.952    37.244729 
  795000   -1839.2709    4672.1011    16813.942    4445.6016    176.49748   -97673.499    11656.084   -86017.415    330.29603    1421.6734    128869.55   -121942.37   -83345.479    37.868249 
  796000   -1893.9985    4621.0425    16803.738    4447.9341    175.15751   -97860.122    11699.926   -86160.196    331.53836    1751.1541     128919.7      -122014   -82867.744    36.624845 
  797000   -1825.7848    4745.2893    16841.072    4491.6581    148.51402   -97543.184    11611.503   -85931.681    329.03273    1925.9674    128645.41   -121943.93   -82318.256    37.454404 
  798000   -1939.6327    4700.1132    16761.083    4556.8756    153.69561   -97781.135    11648.636   -86132.498    330.08498    574.30389    128931.83   -122013.27   -85052.613    37.588348 
  799000   -1831.9276    4670.8915    16861.107    4408.6935    159.95806   -97712.735    11718.585    -85994.15    332.06711    934.13858    129031.91   -121981.46    -84236.29    37.748032 
  800000   -1868.9569    4631.2644    16825.349    4446.3956    151.29735   -97794.168     11504.36   -86289.808    325.99665    1199.0958    129164.49   -121979.52   -84031.034    38.004455 
  801000   -1893.7041    4770.9936    16816.736    4436.1836    161.48122   -97721.709    11795.758    -85925.95    334.25395    1243.4698    129062.53    -122013.4   -83585.436    37.765406 
  802000   -1860.0082    4707.1307    16779.511    4453.5723    167.93582   -97720.271    11664.195   -86056.076    330.52586    1560.5442    128781.64   -121968.41   -83125.143    38.000011 
  803000   -1811.4276    4764.4426    16849.755    4431.7788    173.22212   -97574.347    11825.455   -85748.892    335.09545    1013.8365    128517.18   -121982.12   -83848.667    38.064799 
  804000   -1871.8501    4770.4593    16706.507    4454.0218     152.2634   -97750.017    11659.159   -86090.858    330.38316    1236.0627    128529.65   -121961.42   -83773.892    37.979165 
  805000   -1910.1138      4772.62    16875.388    4497.2764     161.3866   -97640.051    11684.381    -85955.67    331.09787    1114.6713     128463.8   -122036.61   -83867.319    37.308188 
  806000   -1899.3078    4737.1892     16791.23    4514.9624    149.87318   -97700.564    11578.436   -86122.128    328.09573    57.866558    129394.09   -121994.51   -86012.929     37.84101 
  807000   -1889.1429     4681.271    16887.387    4543.7574    159.71445   -97661.212    11561.572   -86099.639    327.61787    1821.9081     128807.9    -122044.2   -82677.128    37.676594 
  808000   -1883.7206    4702.2966    16774.246    4442.4938    160.52372   -97810.216    11749.347   -86060.868    332.93881    1881.9389    128603.02   -122006.06   -82531.211     38.30915 
  809000   -1836.3682     4672.663    16777.483    4492.9498    148.74044   -97738.974    11610.528   -86128.446    329.00511    2238.8947    128473.18   -121994.44   -81933.542    38.227821 
  810000   -1894.7992    4694.4747    16783.434     4518.799    163.26164   -97746.949    11724.522   -86022.427    332.23535    1677.7825    129163.48   -122012.12    -82861.96    38.361615 
  811000   -1907.9481    4681.5292    16813.292     4482.018    166.06971   -97722.409    11574.284   -86148.125    327.97806    597.90295    128553.14   -121957.37   -85027.167    38.104024 
  812000    -1895.771    4735.0711    16809.131    4522.1034    163.91917   -97628.237    11609.919   -86018.318    328.98786    1308.4697    128515.75   -121962.69   -83565.892    37.802883 
  813000   -1853.2893    4731.4791    16812.457    4474.3472    163.01353    -97680.02    11710.262   -85969.758    331.83125    2290.3487    128963.87   -122008.03   -81662.057    38.154458 
  814000   -1864.1203    4787.9779    16738.714    4521.1994    160.63122   -97604.139    11654.742   -85949.396    330.25801     2328.904    128994.82   -121948.54   -81568.129    38.166516 
  815000   -1965.6586    4750.8863    16875.753    4537.8789    149.69043   -97686.715    11516.032   -86170.683     326.3274    1001.5429    128465.65   -122035.27   -84294.253    37.752942 
  816000    -1888.814    4746.1111    16816.967    4504.5463    166.71949   -97610.603    11517.833    -86092.77    326.37843    932.60656    128956.06   -121956.13   -84338.825      38.1675 
  817000    -1892.913    4796.7151    16840.572    4535.4364    167.61736   -97507.009    11624.535   -85882.474    329.40203    1153.5026    128217.45   -121954.44   -83725.516    38.147894 
  818000   -1890.2548    4772.6663    16821.897    4470.1903    151.62933   -97631.955    11714.341   -85917.614    331.94684    1167.8955    128551.77   -121958.08   -83728.048     38.03785 
  819000   -1892.3194    4842.4713    16932.766    4502.5059    157.76464    -97475.09    11631.507   -85843.583    329.59959    1368.5639    129229.66   -122018.28   -83264.276    38.140424 
  820000   -1846.5362     4782.108    16797.409    4549.4475    154.79719   -97563.986    11533.803   -86030.183    326.83098    1983.7193    128474.76   -122001.21   -82313.342    37.793992 
  821000    -1921.872    4861.3148    16835.459     4488.751    162.91122   -97582.216    11603.391   -85978.825    328.80289     528.5648    129381.53   -122008.78   -84981.477     38.15963 
  822000   -1859.5955    4795.8096    16712.567    4453.6957    156.67051   -97733.647    11536.489   -86197.158    326.90707    2041.4058    129226.83   -121992.79   -82349.841    38.334764 
  823000   -1838.8457    4814.4335    16779.956    4497.7032    158.34442    -97613.44    11590.027   -86023.413    328.42418    1384.0785    128983.81   -122025.03   -83419.827    38.148473 
  824000   -1848.8273    4676.3602    16858.803    4513.6955    158.01503   -97660.318    11662.623   -85997.695    330.48132    2207.2254    128926.38   -122018.36    -81847.54    38.261337 
  825000   -1911.2023    4670.7955    16809.013    4494.8352    145.57774   -97808.921    11525.426   -86283.495     326.5936    762.52985     129039.2   -122017.94   -84848.487    38.427431 
  826000   -1889.7555    4700.5885    16857.186    4513.3853    160.98031   -97710.399    11714.217   -85996.182    331.94332     1628.321    128839.05   -122052.78   -82936.591    38.079831 
  827000   -1913.9904    4672.3547    16870.148    4498.2754     160.4831   -97698.424    11640.521   -86057.903      329.855    1096.3534    129374.05   -121985.69   -83989.317    37.915724 
  828000   -1907.4031    4639.3201    16881.522    4481.1684    163.34219   -97719.021    11601.388   -86117.632    328.74612    852.11465    129275.98   -121976.97   -84511.092    38.055582 
  829000   -1943.6374    4753.8485    16848.892    4564.0895     163.9231   -97640.175    11804.222   -85835.954    334.49377    1241.4125     128756.5   -122027.29   -83504.852     38.14978 
  830000   -1872.1793     4755.848    16732.466    4480.9532     161.2965     -97731.4    11727.823   -86003.578    332.32886       1056.7    128546.63   -121989.78    -84022.56    38.081359 
  831000    -1903.928    4674.5712    16940.674    4487.8747    171.93464   -97603.033    11748.485   -85854.549    332.91436    2597.8526    129240.29   -121974.16    -80958.02     37.66778 
  832000   -1914.1422    4669.5561    16866.697    4576.9101    150.25959   -97623.558     11629.54   -85994.018    329.54386    1840.2547    128959.33   -121972.84   -82532.978     38.19702 
  833000   -1860.7745    4744.5352      16728.7    4502.1546    146.28976   -97755.836    11666.954   -86088.882    330.60405    1617.0338    128773.23   -122016.74   -83052.052    38.034505 
  834000   -1878.9714    4861.1391    16796.112    4441.9488    160.02458   -97644.581    11599.061   -86045.519    328.68019    1066.3804    129488.47   -122024.83   -84031.706    38.363671 
  835000    -1862.215    4729.4752    16787.288     4596.624    148.62203   -97596.392    11614.522    -85981.87    329.11829    1859.6413     129490.2   -121996.19   -82469.972     37.58611 
  836000   -1929.5859    4672.5445    16747.034    4504.7863    157.73236   -97818.333    11561.168   -86257.165    327.60642    1600.4157    129038.86   -121970.84   -83245.344    37.721179 
  837000   -1859.4508    4737.1522    16918.667    4518.7601    147.41112   -97544.283    11653.664   -85890.619    330.22746    2919.6398    128918.13   -122006.82   -80401.291    37.223662 
  838000   -1848.0948    4602.4328    16858.319    4482.9015    156.00486   -97751.746    11449.086    -86302.66    324.43037    2326.8433    129455.24   -122003.31   -81909.645    37.617599 
  839000   -1851.1013    4750.4278    16882.741    4431.8042    164.06807   -97626.092    11632.489   -85993.603    329.62742    1738.0886    128847.37   -122004.03   -82727.549    37.968781 
  840000   -1833.9891    4659.4798    16806.962    4463.1364     159.6086    -97730.41    11653.076   -86077.334    330.21079    882.64808    129466.85   -121985.61    -84410.77      37.6353 
  841000    -1827.342    4711.0039    16950.064     4450.339    145.58845   -97564.105    11652.571   -85911.534    330.19649    2198.3373    129437.12   -121993.76   -81761.716    37.926547 
  842000   -1887.2822    4801.6949    16776.205    4564.6643    147.39086   -97606.812    11790.074   -85816.738    334.09286    1426.7555    129323.51   -122009.48   -83125.805     37.41491 
  843000   -1862.2077    4822.1613    16790.407    4427.5683    159.49751   -97666.078    11685.177   -85980.901    331.12042    1326.9409    129469.57    -122003.5   -83475.396    38.253583 
  844000   -1880.2727    4776.0932    16847.615    4500.7182    135.05527   -97628.968    11573.862   -86055.105    327.96613    1856.9119    129317.51   -122008.18   -82553.038    38.424933 
  845000   -1847.9001    4758.2268     16927.99    4533.8056    140.48969   -97500.617     11665.74   -85834.877    330.56965    1671.0076     129053.8   -122013.23   -82689.845    37.680305 
  846000   -1848.5492    4663.9217    16911.645     4505.424    196.58014   -97524.325    11583.535    -85940.79    328.24022    1911.5805    128921.66   -121953.35   -82346.655    37.581588 
  847000   -1914.4158     4674.964    17016.887    4500.8556    181.58881   -97512.455    11589.801   -85922.655    328.41777    1263.6346    128956.68   -121972.33   -83546.136    37.838869 
  848000   -1777.4416    4649.0537    16809.466    4492.3271    163.08866   -97635.114    11480.435   -86154.679     325.3187    2243.0141    128958.33   -121971.61   -81936.187    37.855012 
  849000   -1841.5913     4609.131    16786.982     4441.649    165.21636   -97812.906    11746.151   -86066.755    332.84825    1935.1025    129471.75   -121974.29    -82412.87    37.972995 
  850000   -1808.0179     4743.218     16872.33    4470.8523    158.90401   -97555.891    11734.926   -85820.965    332.53016     1738.057    128520.39   -121993.18   -82563.259    37.017762 
  851000   -1850.7506     4809.742    16732.841    4535.9539    185.91507   -97626.993    11509.023    -86117.97    326.12878    1500.7073     128557.6   -122040.69   -83304.323    37.271526 
  852000   -1882.6502    4728.4723    16884.348    4490.3958    165.90679   -97580.327    11680.794   -85899.533    330.99624     1352.151    129322.38    -121966.8    -83349.33    38.283699 
  853000    -1845.266     4865.236    16840.058    4456.4348    175.88743   -97499.755    11593.189   -85906.566    328.51378    1135.5072    128852.32   -121992.11   -83772.745    37.835111 
  854000   -1873.2598    4720.8432    16898.963    4486.3342    168.47835    -97593.17     11672.25    -85920.92    330.75411    1224.4118    128831.11   -121994.53    -83620.41    38.095761 
  855000   -1863.7811    4684.3198    16827.379    4454.7081    161.24587   -97748.674    11665.002   -86083.672    330.54872    2617.5892    128505.13   -122012.55   -81178.008    37.435108 
  856000   -1768.4937    4752.2285    16863.015    4335.2849    157.33379   -97638.552    11806.044   -85832.508     334.5454    2226.6114    128970.86   -121977.92   -81644.457    37.568416 
  857000   -1879.2594    4746.0594    16859.456    4468.8465    144.09939   -97668.577    11659.758   -86008.819    330.40013    791.80151    129188.87   -122007.78   -84516.996    38.038182 
  858000   -1920.4768    4721.5856    16807.037    4539.7865    149.08315   -97717.584    11633.741   -86083.844    329.66288    344.08886    129001.14    -122014.6   -85436.492    38.301874 
  859000   -1972.5983    4791.8153    16972.446    4527.8242    141.68142   -97527.405    11663.894   -85863.511    330.51732    1108.8781    128741.67   -121988.57    -83781.52    37.557936 
  860000   -1861.5817    4688.1977    16865.298    4460.6074    155.71929   -97666.859    11665.967   -86000.892    330.57608    2987.1557    128577.38    -121975.1    -80399.47    38.048267 
  861000   -1885.6261    4760.1191    16790.721    4420.0544     146.3067   -97733.262    11632.239   -86101.023    329.62035    1012.2648       129362   -121964.84   -84191.272    38.170939 
  862000   -1857.3754    4635.7548    16910.223    4453.4052    162.77629   -97637.789    11686.351   -85951.437     331.1537    1921.5373    128448.02   -121942.57   -82351.855    38.051085 
  863000   -1915.2638    4818.4002    16848.881    4468.9971    153.15954   -97610.174    11545.174       -86065    327.15318    1614.5941    128724.38   -121984.35   -83033.901    38.425554 
  864000   -1912.8511    4736.5507    16867.232    4490.5232    154.51395   -97691.579    11773.934   -85917.645    333.63552    1040.0643    129073.63   -122027.55   -83959.821    38.187088 
  865000   -1956.5139    4770.0752    16924.682    4538.1923    151.66668   -97579.758    11572.166   -86007.591    327.91806    1141.9487     128253.2   -122007.86   -83871.643    38.353892 
  866000   -1857.4895    4827.3084    16859.721    4501.8974    166.28401   -97524.734    11641.306   -85883.428    329.87726    1721.4031    129121.27   -122022.46   -82641.852    38.084318 
  867000   -1915.7416    4589.9281    16765.254      4541.11     162.5226   -97810.588    11575.792   -86234.796    328.02081    1395.2877     129535.8   -121953.66   -83598.893    37.930969 
  868000    -1850.263    4706.0446    16865.549    4453.8344    165.58326   -97648.429    11475.433   -86172.997    325.17694    1935.2365    128755.54   -121989.18   -82539.072    37.969601 
  869000   -1863.8878    4621.5462    16907.106    4628.6084    151.60745   -97579.249    11667.813   -85911.437    330.62838    1958.1768    128919.66   -122024.23   -82229.749    37.950902 
  870000   -1925.9065    4670.7125    16806.479    4530.2424    141.36257   -97770.063    11677.324   -86092.739    330.89789    1666.5969    129576.34   -121992.95   -82943.308    38.310731 
  871000    -1829.194    4662.6824    16814.994      4562.81    153.09992   -97665.896    11701.344   -85964.552    331.57856    2319.0374    129095.64   -122030.29   -81598.436    37.917843 
  872000     -1888.37    4784.4716    16974.994    4502.4467     169.4406   -97481.141    11678.723   -85802.418    330.93753    2072.3485    129205.63   -122024.12   -81897.426    37.564126 
  873000   -1880.1975    4698.8827     16862.36    4566.5397    155.66626   -97611.218    11610.122   -86001.096     328.9936    2739.7908    128980.08   -122014.47   -80847.434    37.958178 
  874000    -1866.782    4703.5322    16956.499     4546.988    155.97079   -97521.074    11552.973   -85968.101     327.3742    2254.1709     128871.1   -122017.28   -81731.493    37.847177 
  875000   -1890.1209    4663.9774    17014.818    4497.4416    150.49958   -97601.782    11764.853   -85836.929    333.37819    953.88293    128550.42    -122038.4   -84048.612    38.217502 
  876000   -1910.2704    4708.8726    16872.212    4528.6832    169.32621   -97633.199    11541.133   -86092.066    327.03868    1259.3477    128883.73   -122002.02    -83724.95    38.481873 
  877000   -1858.0857    4644.9691    16788.564    4505.4009    181.10517   -97755.296    11576.692   -86178.605     328.0463    1822.2888    128611.77   -122017.25   -82760.591    37.999836 
  878000   -1848.9424    4655.8841    16795.642    4504.6549    150.87596     -97731.4    11745.116   -85986.285    332.81889    1476.0864    128602.95   -121989.51   -83217.823    37.466059 
  879000   -1894.7364    4702.0535    16888.936    4465.7725    150.65621   -97730.318    11524.928    -86205.39    326.57949    890.29633    129126.27      -122043   -84528.807     38.15303 
  880000   -1885.5239    4722.5436    16867.125    4519.9274    151.01716   -97607.292     11578.54   -86028.752    328.09869     771.7269    128640.96   -121982.38   -84580.918    37.815406 
  881000   -1883.3241    4642.3986     16846.67    4462.4073     155.5057    -97778.27    11552.434   -86225.836    327.35891    1785.3239    128635.41   -122001.93   -82876.541    37.620185 
  882000   -1965.3082    4670.0665    16821.273    4579.3052    151.60818   -97727.577    11803.049   -85924.527    334.46055    1334.5537    128785.62   -121984.52    -83417.96    37.493976 
  883000   -1874.0745    4788.2689     16754.59    4534.1093    169.22416   -97578.046    11656.615   -85921.432    330.31106    1146.9161    128898.57   -121950.16   -83765.398    38.004031 
  884000   -1900.6148    4781.6921    16797.371    4491.9916    153.11804   -97694.115    11716.867   -85977.248    332.01842    526.81746    128101.09   -122017.67   -84993.036    37.461601 
  885000   -1925.1477    4750.4763    16871.607    4531.0822    154.94767     -97634.8    11517.641   -86117.159    326.37299    1893.5095    128584.69   -122017.77   -82566.307    37.787528 
  886000    -1843.622    4723.8332    16753.995     4453.028     171.6157   -97696.324    11622.316   -86074.007    329.33915    1559.1325    128885.21   -121955.17   -83143.371    37.796009 
  887000   -1906.4515    4759.9748    16877.045     4468.199    152.26742   -97624.556    11673.562   -85950.994    330.79129    1127.1337    129500.18   -121975.59   -83822.259    37.185277 
  888000   -1869.7687    4629.8434    16876.273    4473.2078    149.51883   -97735.523    11723.389   -86012.133    332.20324    1571.3764    128980.53    -121994.6   -83056.298    37.375536 
  889000   -1870.7635    4737.5779     16754.91    4455.6592    143.94814   -97757.606    11688.132   -86069.474    331.20416    1537.8494    129091.75   -121978.94    -83174.21    37.871515 
  890000   -1854.6035    4698.1809    16869.237     4498.385    140.93766   -97643.657    11616.002   -86027.654    329.16024    1945.2788    128946.27   -121995.79   -82369.462    37.935517 
  891000   -1884.8971    4646.7775    16725.494    4417.7582     161.5922   -97871.612    11634.611   -86237.002    329.68754      1738.96    128605.89   -121938.34   -82975.434    37.900498 
  892000   -1907.9886    4794.9301    16966.509    4424.2001     157.9646   -97588.399    11564.577   -86023.821    327.70301     1063.615    128432.74   -122024.01   -84031.607    37.360472 
  893000   -1924.1967    4691.6659    16748.918    4450.6746    156.12572   -97895.387    11622.862   -86272.525    329.35461    2011.4022    128498.58   -122018.57   -82503.117    38.158395 
  894000   -1911.9794    4713.4147    16850.029    4474.8974    162.03512   -97721.131    11589.513   -86131.619    328.40961    1884.0029    128257.85   -122009.53   -82607.574    37.589428 
  895000   -1912.0808    4761.0235    16899.025     4440.957    166.39549   -97638.244    11558.178   -86080.066    327.52169    1008.2528    128408.23   -121993.56   -84191.908     38.31839 
  896000   -1897.2122    4691.3409    16869.316    4499.3596    147.36115   -97677.627    11775.653   -85901.973    333.68423    2015.1036    128109.21   -121987.79   -82137.072    37.787951 
  897000   -1919.2029    4646.6788    16846.473    4391.1709    167.09823   -97847.377    11543.786   -86303.591    327.11386    1563.4764    128534.51    -121979.6   -83372.786    37.640583 
  898000   -1919.7928    4735.5196    16837.448    4480.6382    165.39215   -97669.097    11663.758   -86005.339    330.51348    1028.5799    128784.88    -121968.3   -84073.466    37.602228 
  899000   -1903.5576    4800.3996    16896.202    4468.4025    168.21171   -97608.339    11685.622   -85922.716    331.13304    1785.5877       129207      -122038   -82558.041    37.658989 
  900000   -1878.9572    4813.6842    16813.554    4432.5786    154.86355   -97656.898    11590.193   -86066.705    328.42889    1212.5921    128841.76   -121992.62   -83788.214    37.420429 
  901000   -1838.6893    4695.6634    16925.944    4462.9957    159.68268    -97602.96    11709.803   -85893.157    331.81825    2210.5914    129090.05   -122008.56   -81731.396    37.529432 
  902000   -2021.7394    4658.9546    16825.538    4512.1346    166.08427   -97801.317     11612.19   -86189.127     329.0522     1256.043    127973.61   -121942.29   -83844.894    37.624231 
  903000    -1918.497    4740.4353    16982.179    4443.1802    155.61611   -97643.701    11702.726   -85940.975     331.6177    1939.0528    128801.63   -122046.61   -82298.582    37.390657 
  904000   -1872.3262    4885.2808    16893.669     4436.736    136.01236   -97480.118    11538.801   -85941.318    326.97259    1878.5862    129188.79   -121959.49     -82401.9    37.649225 
  905000   -1946.5233    4755.1688    16766.459    4403.0211    154.82237   -97824.977    11691.943   -86133.034    331.31216    265.25554    128855.83   -121957.92   -85634.557    38.122747 
  906000   -1871.5955    4737.1247    16893.484    4388.3413    167.02646   -97649.761    11853.475   -85796.286    335.88945    1872.6952    128794.26   -121964.14   -82278.743    37.883071 
  907000   -1942.7319     4689.849    16903.772    4503.5021    152.99581   -97676.974    11625.041   -86051.933    329.41636    2573.9153    128394.74   -121984.36   -81232.262    37.408112 
  908000   -1931.8159    4854.3467    16623.897    4502.4883    177.58399   -97735.809    11749.434   -85986.375    332.94127    1711.9609    129152.86   -121962.31    -82761.79     37.79112 
  909000   -1929.5946    4756.4616    16814.964    4533.4824    139.13149   -97656.957    11746.501   -85910.456    332.85816    1455.2741    128975.18    -121971.4   -83173.128    37.998916 
  910000   -1913.3873    4677.3777    16919.916    4485.8577    162.40869   -97627.738    11698.693   -85929.046    331.50342    2341.8775    128539.13   -121959.91   -81538.936    37.900901 
  911000   -1938.9223    4765.7583    16828.393    4501.5819    156.72774   -97709.881    11593.969   -86115.911     328.5359    2391.4586    128009.12   -122023.42   -81651.341    37.233236 
  912000   -1956.1528    4676.3425    16711.437    4538.2064    152.92038   -97858.382    11541.493   -86316.889    327.04889     1501.206    128998.88   -121981.14   -83492.645    37.617438 
  913000   -1919.0523    4763.6618    16842.135    4475.7315    161.57157   -97680.174    11713.858   -85966.316    331.93315    694.27004    129170.89   -122004.22   -84658.433    37.773322 
  914000    -1929.785    4719.1029    16852.175    4467.6676    165.81299   -97699.046     11773.83   -85925.217    333.63256     1915.367     129146.6   -121974.02   -82317.679     37.81074 
  915000   -1845.0373    4761.2009    16732.224    4490.1723    158.28833   -97711.237     11610.29   -86100.947    328.99837    2374.1664    129409.66   -122008.09   -81620.166     37.55757 
  916000   -1882.9569    4678.8377    16826.764    4529.0714    175.47342   -97640.533    11803.161   -85837.373     334.4637    1918.4384    129125.19   -121967.72   -82224.649     37.91608 
  917000   -1860.6341    4619.9286    16818.274    4488.6021    168.63174   -97755.825    11691.081   -86064.744    331.28772    2003.6976    128823.84   -121990.63    -82300.27    37.865741 
  918000   -1889.9251    4700.7858    16827.682    4464.1578    158.22135   -97654.049    11721.206   -85932.843    332.14137    1236.6924    129170.65   -121914.97   -83603.136    37.010572 
  919000   -1909.1642      4669.74    16862.036    4475.0853     156.2079   -97756.172    11670.746   -86085.426     330.7115    2230.3261    129336.43   -122010.08   -81878.498    38.133685 
  920000   -1931.6682      4586.78    16859.116    4490.3848     148.2615   -97819.172    11557.333   -86261.839    327.49773     1496.572    129000.85   -121972.05   -83446.271     38.34645 
  921000   -1852.8075    4718.9986    16838.666    4465.0972    140.13266   -97665.871    11672.074   -85993.797    330.74912    2316.6255    128682.87   -121975.96   -81646.168    37.565173 
  922000    -1942.245    4729.9386     16817.57    4464.6207    157.58844   -97731.551    11368.949   -86362.602    322.15954    796.31537    129199.55   -121959.02    -84862.15    37.775098 
  923000   -1880.1609    4739.0691    16738.756    4507.4882    168.20515   -97752.215    11728.962   -86023.253    332.36115    1755.6445     128763.4   -122025.57    -82726.36    37.695829 
  924000   -1883.2666     4751.702    16837.553    4515.4212    156.90924    -97586.22    11576.067   -86010.152    328.02861    1653.3155    129228.01   -121964.54   -82894.218    37.746425 
  925000   -1890.6985    4761.4914    16818.622    4483.9351    155.54579   -97652.113    11750.959   -85901.154    332.98448    1237.3907    129027.81   -121981.01   -83572.708    38.105433 
  926000    -1907.571    4677.3315    16702.551    4539.3335    167.91507   -97753.667     11629.11   -86124.557    329.53168    1382.6899    128694.75   -121933.23   -83529.412     37.67772 
  927000   -1972.9773    4722.6959    16679.444    4544.6085    173.02843   -97819.059    11579.533   -86239.526    328.12681    975.08177    128891.47   -121965.86   -84406.617    37.948296 
  928000   -1923.5965    4710.8191    16857.213    4559.4257    164.22619   -97613.465    11624.767   -85988.698     329.4086    1331.7743    128865.56   -121981.55   -83485.799    37.671594 
  929000   -1847.2264    4675.0401    16913.195    4447.6322    153.60654    -97661.68     11647.91    -86013.77    330.06441     2145.278     128854.9   -122003.93   -81982.328    37.654155 
  930000   -1919.5568    4585.8624     16888.28    4409.7519     166.7892   -97829.428     11618.33   -86211.097    329.22621    1034.4565     128930.6   -121960.55   -84265.987    37.885003 
  931000   -1908.2819    4612.8755    16939.323    4494.7846    158.08701   -97666.077    11632.837    -86033.24    329.63728     1568.707     128852.9   -121962.87   -83085.345    37.984852 
  932000   -1919.5693    4764.2466    16973.765    4494.7685    145.60938    -97535.48    11687.241   -85848.239    331.17892    1957.8214    128514.17    -121994.3   -82178.797    38.382662 
  933000   -1952.6267    4826.8906    16797.416    4482.6278     153.8181   -97653.258    11646.455   -86006.804    330.02316    897.29071    128571.25   -121961.38   -84324.312    37.933605 
  934000   -1878.7758    4751.8706    16844.375    4489.0968    156.70697   -97606.391    11542.103   -86064.288    327.06618    2221.8645    128662.17   -121969.67   -81895.169    37.672359 
  935000   -1857.8096    4720.3899    16788.542    4533.0155    168.81045    -97626.37    11619.533   -86006.837     329.2603    2255.9962     128395.7   -121979.32    -81782.44    37.235171 
  936000   -1863.0354    4656.9237    16767.958    4464.3076    167.28358   -97789.876    11658.301   -86131.575    330.35886     1195.781    128669.67   -121983.31   -83887.674    38.291568 
  937000   -1921.2257    4720.2318    16836.872    4424.5084    155.68367   -97777.011    11420.464   -86356.547    323.61931     591.0645    129648.35   -121993.08   -85238.969    38.233479 
  938000   -1898.7442    4708.4891    16764.384    4471.0291    147.07139   -97768.848    11670.054   -86098.795    330.69188    1265.8694    129165.76   -121961.08   -83714.213     38.45159 
  939000   -1887.6347    4686.4104    16859.345     4538.552    162.85404   -97643.972    11710.026   -85933.946    331.82456    2079.3582     128235.4    -122003.5   -82045.168    37.793056 
  940000   -1932.0956     4652.199    16894.639    4456.4696    150.33764   -97765.133    11636.908   -86128.224    329.75265    1799.2672    128572.19   -121986.68    -82754.43    38.174396 
  941000   -1860.2693    4790.3459    16890.687    4320.7531    161.33432   -97675.853    11584.051   -86091.803    328.25483    1244.8922    128969.55    -121978.7   -83750.299    38.044755 
  942000   -1926.5511    4664.5895    16836.384    4436.4911    185.76823   -97730.166     11711.89   -86018.276    331.87739    2394.7647    128446.65   -121926.85   -81532.253    37.794929 
  943000   -1985.0394    4629.4038    16811.114    4512.3391    160.23756   -97906.837    11601.299   -86305.539    328.74358    1584.8319    128823.62   -122034.89   -83328.019    38.064339 
  944000   -1911.6702    4674.4059    16889.423    4462.7061    168.37016   -97697.417     11621.39   -86076.027    329.31291    1239.2674     128455.5   -121980.65   -83754.394     38.24577 
  945000   -1972.4299    4757.6497    16860.498    4458.9038    144.93733   -97745.342    11712.077   -86033.266    331.88267    1353.1639    128541.59    -121994.9   -83496.561    37.766227 
  946000   -1902.5944    4647.4036    16802.042    4482.7996    167.45683   -97732.875    11498.007   -86234.868    325.81664     1827.814    128607.95   -121929.98   -82806.593    37.973029 
  947000   -1904.5736     4637.491    16930.067    4434.1596    154.24358   -97723.654    11638.384    -86085.27    329.79447    1224.3546    129134.93   -121975.04   -83779.442    37.896695 
  948000   -1926.3557    4769.9443    16858.804    4564.6828     156.8718   -97606.907    11680.349   -85926.558    330.98362    1624.9792    128357.27   -122030.85   -82884.663    37.979531 
  949000   -1888.2942    4696.4267    16811.935    4517.6303    176.99449   -97687.982    11644.846   -86043.135    329.97759     2306.826    129020.89   -122002.67   -81702.525    38.214736 
  950000   -1863.9946    4709.3878    16831.642    4483.9691    155.54138   -97673.872    11664.399   -86009.472    330.53166    2370.4135    128623.25   -121990.42    -81562.96    38.220458 
  951000   -1879.1484    4794.6702    16810.223    4523.6164    165.68915   -97620.461    11546.789   -86073.672    327.19896    873.70487    128614.33   -122035.51   -84434.857    38.536054 
  952000   -1939.4974    4661.7736    16792.166    4523.5827    155.44114   -97784.716    11817.026    -85967.69    334.85659    2900.3054    128642.76   -121978.18   -80526.362    37.803336 
  953000   -1892.1275    4663.7179    16836.928    4528.9987    168.68664   -97658.068    11427.459   -86230.609    323.81754    1556.4484    128780.09   -121964.27   -83307.403    38.137007 
  954000   -1935.6093    4729.0491    16822.488    4523.1224    159.84215   -97670.046    11765.944   -85904.102    333.40909    612.02134    128899.75   -121968.94   -84753.581    37.699326 
  955000    -1929.039    4772.9847    16905.845    4536.0381    173.57732   -97548.786    11686.658   -85862.128     331.1624    923.27437    128737.64   -122008.19   -84128.674    38.045346 
  956000   -1902.7621    4890.6953     16764.13    4540.1308    158.96913   -97578.742    11633.902    -85944.84    329.66745    177.23269    129447.69   -122029.91   -85610.249    38.434486 
  957000   -1905.7987    4652.4372     16859.13     4527.833    150.73999   -97692.675    11645.489   -86047.186     329.9958    2273.3284     127822.9   -121977.02   -81809.325    38.118051 
  958000   -1902.3874    4713.1391    16916.242    4472.9762    160.85342   -97580.384    11756.528   -85823.855    333.14229    2043.2355    128714.42   -121941.21    -81988.36    37.933603 
  959000   -1932.1997    4677.4833    16827.725    4474.1219    165.64926   -97781.905     11649.02   -86132.885    330.09585    659.51959    128895.71   -121994.68   -84893.113    38.091249 
  960000   -1909.6248     4775.978        16812    4511.8583    143.20505   -97633.826    11805.075   -85828.751    334.51796     1377.971    128903.71   -121967.24   -83238.264    37.921655 
  961000    -1891.961    4738.6987    16791.595    4565.5781    157.37691   -97604.773    11644.427   -85960.345    329.96571     1880.139    128723.62   -121966.06   -82430.757    38.070819 
  962000   -1841.9225    4780.9034    16848.391    4453.8073    164.29817   -97593.538     11745.31   -85848.228     332.8244    1543.5149    128522.03   -121999.02   -82955.123    37.920867 
  963000   -1948.0645     4726.488    16877.529    4532.9671    162.26048    -97605.23    11681.361   -85923.869     331.0123    1812.9045    128238.79   -121956.41   -82533.318    37.978967 
  964000   -1920.1281    4645.0287    16819.166    4444.8413    161.94881   -97841.762    11653.845   -86187.917    330.23258    835.79945    129235.76   -121992.62   -84612.627    38.348534 
  965000   -1915.2344    4739.0836    16906.398    4488.4974    154.09716   -97625.364    11850.227   -85775.138    335.79741     995.3656     128580.5   -121998.21   -83908.613     38.20664 
  966000   -1927.9586    4760.6264    16897.594    4498.7669    151.60495   -97648.277    11626.107    -86022.17    329.44657    1654.0812     129278.9   -122028.91   -82903.565    38.196401 
  967000   -1886.2015    4676.2315    16760.899    4547.6609    171.09523    -97692.95    11735.391    -85957.56    332.54332    1992.0381    128649.89   -121962.64   -82220.045    38.225591 
  968000   -1978.4422    4689.6863    16904.872    4536.2533    144.25442   -97729.821    11507.688   -86222.134    326.09094    1673.5507    128645.26   -122026.44   -83082.286    37.774346 
  969000    -1932.823     4754.829    16838.423    4529.5576    155.42159   -97642.021    11595.685   -86046.336    328.58451    2094.1989    129116.78   -121987.43   -82102.885    38.135207 
  970000   -1892.7437    4754.8932    16895.144    4494.8518    147.57379   -97604.318    11724.481   -85879.837    332.23417    1885.1086    128787.67   -122004.04   -82339.158    38.330633 
  971000   -1863.7089    4658.1031    16763.605      4555.58    160.09176   -97733.207    11616.054   -86117.153    329.16169    1868.8308     128772.1   -122006.88   -82607.472    38.026198 
  972000   -1894.4686    4708.6062    16873.249    4570.8111    156.44679   -97599.473    11460.171   -86139.302    324.74449    1128.8146    129033.41   -122014.12   -84015.076    37.988662 
  973000   -1924.0044    4606.5066    16877.689    4567.2278    151.62242   -97693.142    11749.531   -85943.611    332.94401    1484.7816     128444.9   -121972.18   -83162.263    37.968699 
  974000   -1982.1524    4621.6579    16825.817    4580.2637    150.36595   -97795.784    11545.392   -86250.392    327.15936    1489.5723    128824.73   -121991.74   -83451.819    38.233711 
  975000   -1913.7972    4745.4306    16937.517    4508.6173      151.575   -97556.835      11618.4   -85938.434    329.22819    1072.9501    128600.94   -121986.18   -83926.102    37.621536 
  976000   -1948.7613    4708.7742    16863.158    4613.5069    140.66186   -97624.425    11566.746   -86057.679    327.76446    1875.5673    128734.57   -122001.76   -82536.374    37.916891 
  977000   -1926.1281    4764.5794    16797.621    4523.5491    167.51472   -97657.498    11553.896   -86103.602    327.40036    804.73044    128773.27   -121984.63   -84592.297    37.749167 
  978000   -1878.0246    4727.1815    16896.987    4509.4457    146.33335   -97613.247    11667.758   -85945.489    330.62681    2248.3409    127979.01   -122015.17    -81749.09    37.620023 
  979000   -1926.4003      4607.12    16739.197    4543.9865    154.16875   -97871.867    11592.137    -86279.73    328.48398    624.11212    128601.93   -121989.94    -85109.19    37.809482 
  980000   -1916.6023    4830.0202    16803.203    4512.2341    152.06519   -97630.386    11684.583   -85945.803     331.1036    939.47584    129075.13   -122011.31   -84177.307    38.049822 
  981000   -1865.9818    4708.9888    16822.061    4545.1586    153.25215   -97627.582    11531.266   -86096.316    326.75907    1600.2706    128630.47   -121991.06   -83094.299    37.974014 
  982000   -1895.7266    4776.5668    16857.805    4490.6371    157.50715   -97605.711    11715.479   -85890.233    331.97907    1522.0841    128557.55    -121992.5   -83036.508    37.918299 
  983000   -1892.2596    4771.4455    16796.179    4496.3267    167.74206   -97633.558    11523.945   -86109.613    326.55163    2200.9057    128871.91   -121972.99   -81973.088    38.037178 
  984000   -1894.5485    4743.7439    16776.762    4520.6684    161.34094   -97660.477    11845.336   -85815.141    335.65881    1976.7472     128764.1   -121968.44   -82103.023    37.817661 
  985000   -1898.0966    4791.9323    16799.647    4522.5174     154.2925   -97647.783    11683.227   -85964.556    331.06518    1988.0619    129168.49   -122018.08   -82219.464    38.020095 
  986000   -1888.6457    4725.0923    16879.424    4465.5891    154.85062   -97650.324    11569.054    -86081.27    327.82988    1089.8757    129102.57   -121986.63   -84029.221    38.269382 
  987000   -1909.4702    4689.5839    16692.793    4466.8751    152.97029   -97925.092     11708.83   -86216.262    331.79069    1548.9266    128739.14   -122017.84   -83308.108    37.548892 
  988000    -1916.053     4649.055    16794.223    4544.9875    174.06868   -97759.431    11709.744   -86049.687    331.81657     997.8689    128841.98   -122005.71   -84174.664    37.990295 
  989000   -1877.5116    4724.5335    16939.605     4528.437    177.64072   -97492.617    11698.825   -85793.792    331.50717    2360.8252    129304.81   -121985.32     -81341.8     37.79869 
  990000   -1917.1143    4693.9455     16728.96    4504.4887    166.88205   -97806.792     11779.51   -86027.282    333.79352    1100.9495    128617.97   -121983.95   -83962.163    38.364314 
  991000   -1913.5698    4651.6003    16915.092    4551.9723    150.00276   -97629.735    11630.666   -85999.069    329.57577    1522.0623    128905.27   -121984.83   -83137.666    38.160844 
  992000   -1899.0106    4695.8276    16880.419    4542.3363    147.05841   -97598.739     11569.86   -86028.879    327.85272     1981.886     129336.3   -121965.37   -82290.572    37.588803 
  993000    -1900.339    4724.1835    16823.751    4514.1343    153.73395    -97659.33    11732.028   -85927.302    332.44802    325.97585    129277.19   -121974.79   -85312.715    37.431609 
  994000    -1963.807    4694.2691    16916.296    4587.1409    158.72189   -97667.872     11676.89   -85990.982     330.8856    1891.1377    128869.06   -122060.49   -82436.735    37.600642 
  995000   -1905.4548    4736.7336     16760.03    4533.0711    134.91179   -97751.247    11609.217   -86142.029    328.96797     948.9142    129023.21   -122010.54   -84356.485    38.034685 
  996000   -1952.3987    4650.0366    16871.224    4540.1604    150.01272   -97733.125     11755.58   -85977.545    333.11543    1775.2724    129583.38   -121992.16   -82622.563    37.552508 
  997000   -1880.9905     4718.914    16897.247    4460.7474    159.46504   -97635.001    11669.568   -85965.433    330.67811    1433.5894    129700.92   -121990.38    -83253.72    37.738106 
  998000   -1941.4812    4725.5408    16826.202    4583.9533    148.67834   -97647.675     11603.64   -86044.035    328.80994    1484.8472    129506.38   -121990.57   -83239.578    38.230972 
  999000   -1873.3707    4588.6835    16820.704    4560.0523    162.22846    -97742.22    11563.058   -86179.163    327.65996    1953.6606    129227.49   -122000.52   -82497.195    37.621541 
 1000000   -1926.5505    4720.6649    16832.166      4473.41    156.66703    -97744.56    11577.751   -86166.809    328.07632    1508.9034    129360.36   -122000.92    -83320.13    38.392956 
 1001000   -1939.9893    4743.2126    16854.178    4487.5942    138.13927   -97741.194     11581.93   -86159.264    328.19475    361.26245    128708.63   -122024.33   -85481.144    37.932088 
Loop time of 13224.7 on 56 procs for 500000 steps with 11840 atoms

Performance: 3.267 ns/day, 7.347 hours/ns, 37.808 timesteps/s
98.0% CPU use with 56 MPI tasks x no OpenMP threads

MPI task timing breakdown:
Section |  min time  |  avg time  |  max time  |%varavg| %total
---------------------------------------------------------------
Pair    | 9247.9     | 9904.1     | 10630      | 412.7 | 74.89
Bond    | 246.23     | 289        | 330.42     | 165.2 |  2.19
Kspace  | 1426.2     | 2139.6     | 2816.7     | 934.7 | 16.18
Neigh   | 128.87     | 129.13     | 129.4      |   1.2 |  0.98
Comm    | 106.36     | 135.77     | 176.9      | 163.8 |  1.03
Output  | 0.037889   | 0.038386   | 0.048154   |   0.7 |  0.00
Modify  | 484.08     | 563.52     | 652.7      | 184.0 |  4.26
Other   |            | 63.58      |            |       |  0.48

Nlocal:        211.429 ave         235 max         191 min
Histogram: 4 6 6 10 8 6 3 4 7 2
Nghost:        7079.52 ave        7200 max        6928 min
Histogram: 4 3 1 5 6 17 4 4 3 9
Neighs:        111850.0 ave      124671 max      101477 min
Histogram: 6 5 5 12 7 6 2 4 6 3

Total # of neighbors = 6263598
Ave neighs/atom = 529.02010
Ave special neighs/atom = 6.1405405
Neighbor list builds = 18953
Dangerous builds = 0
write_data      data_2_press.*
System init for write_data ...
PPPM initialization ...
  using 12-bit tables for long-range coulomb (../kspace.cpp:340)
  G vector (1/distance) = 0.26626472
  grid = 45 50 60
  stencil order = 5
  estimated absolute RMS force accuracy = 0.00034629693
  estimated relative force accuracy = 1.0428629e-06
  using double precision FFTW3
  3d grid and FFT values/proc = 9280 4500
WARNING: Not all mixed pair coeffs generated from mixing. Use write_data with 'pair ij' option to store all pair coeffs. (../write_data.cpp:312)
unfix 1




#-------------------------------------------------------------------------------
shell "cat log.lammps | grep -v '[a-zA-Z]' | grep -v '^[[:space:]]*$' | grep -v '}' | grep -v '^-*$' | grep -v '^#*$' | grep -v '#-' | tail -n +4 > lmps.dat"
Total wall time: 7:11:14
