LAMMPS (29 Sep 2021)
clear
units real
boundary p p p
atom_style full


neighbor 2.0 bin


# ------------------------ MOF-FF FORCE FIELD ------------------------------


pair_style buck6d/coul/gauss/long     0.9000     0.9000    12.0000
box tilt large
dihedral_style opls
improper_style inversion/harmonic
read_data 		C4_222.data
Reading data file ...
  orthogonal box = (0.0000000 0.0000000 0.0000000) to (51.703312 51.703314 51.703314)
  2 by 4 by 7 MPI processor grid
  reading atoms ...
  8384 atoms
  scanning bonds ...
  4 = max bonds/atom
  scanning angles ...
  6 = max angles/atom
  scanning dihedrals ...
  36 = max dihedrals/atom
  scanning impropers ...
  2 = max impropers/atom
  reading bonds ...
  9088 bonds
  reading angles ...
  16896 angles
  reading dihedrals ...
  24576 dihedrals
  reading impropers ...
  1536 impropers
Finding 1-2 1-3 1-4 neighbors ...
  special bond factors lj:    0        0        0       
  special bond factors coul:  0        0        0       
     4 = max # of 1-2 neighbors
    12 = max # of 1-3 neighbors
    24 = max # of 1-4 neighbors
    22 = max # of special neighbors
  special bonds CPU = 0.003 seconds
  read_data CPU = 0.068 seconds
include			parameters.dat.txt

pair_coeff     1     1           50784       2.6200873       5731.7134        39.94184      0.34105377    # buck6d->(zn4_o4@zn4o)|Zn4O_benz/gaussian->(zn4_o4@zn4o)|Zn4O_benz <--> buck6d->(zn4_o4@zn4o)|Zn4O_benz/gaussian->(zn4_o4@zn4o)|Zn4O_benz
pair_coeff     1     2       13670.593       3.1662269       495.43572       2.8200727      0.45538243    # buck6d->(zn4_o4@zn4o)|Zn4O_benz/gaussian->(zn4_o4@zn4o)|Zn4O_benz <--> buck6d->(h1_c1@ph)|benzene/gaussian->(h1_c1@ph)|benzene
pair_coeff     1     3       13670.593       3.1662269       495.43572       2.8200727      0.45538243    # buck6d->(zn4_o4@zn4o)|Zn4O_benz/gaussian->(zn4_o4@zn4o)|Zn4O_benz <--> buck6d->(h1_c1@me)|butane/gaussian->(h1_c1@me)|butane
pair_coeff     1     4       22875.278       2.8235294       1648.4078        14.02027      0.42066066    # buck6d->(zn4_o4@zn4o)|Zn4O_benz/gaussian->(zn4_o4@zn4o)|Zn4O_benz <--> buck6d->(c3_c2h1@ph)|benzene/gaussian->(c3_c3@ph)|Zn4O_benz
pair_coeff     1     5       22875.278       2.8235294       1648.4078        14.02027      0.42066187    # buck6d->(zn4_o4@zn4o)|Zn4O_benz/gaussian->(zn4_o4@zn4o)|Zn4O_benz <--> buck6d->(c3_c2h1@ph)|benzene/gaussian->(c3_c2h1@ph)|benzene
pair_coeff     1     6       22875.278       2.8235294       1648.4078        14.02027      0.42066187    # buck6d->(zn4_o4@zn4o)|Zn4O_benz/gaussian->(zn4_o4@zn4o)|Zn4O_benz <--> buck6d->(c3_c2o1@ph)|ph-O-butyl/gaussian->(c3_c2o1@ph)|ph-O-butyl
pair_coeff     1     7       22875.278       2.8368794       1602.4086       13.124311      0.42066066    # buck6d->(zn4_o4@zn4o)|Zn4O_benz/gaussian->(zn4_o4@zn4o)|Zn4O_benz <--> buck6d->(c3_c1o2@co2)|Zn4O_benz/gaussian->(c3_c1o2@co2)|Zn4O_benz
pair_coeff     1     8       15883.794       2.7713626       1280.1071       18.202956      0.42066187    # buck6d->(zn4_o4@zn4o)|Zn4O_benz/gaussian->(zn4_o4@zn4o)|Zn4O_benz <--> buck6d->(c4_c2h2@me)|butane/gaussian->(c4_c2h2@me)|butane
pair_coeff     1     9       15883.794       2.7713626       1280.1071       18.202956      0.42066187    # buck6d->(zn4_o4@zn4o)|Zn4O_benz/gaussian->(zn4_o4@zn4o)|Zn4O_benz <--> buck6d->(c4_c1h2o1@me)|ph-O-butyl/gaussian->(c4_c1h2o1@me)|ph-O-butyl
pair_coeff     1    10       15883.794       2.7713626       1280.1071       18.202956      0.42066187    # buck6d->(zn4_o4@zn4o)|Zn4O_benz/gaussian->(zn4_o4@zn4o)|Zn4O_benz <--> buck6d->(c4_c1h3@me)|butane/gaussian->(c4_c1h3@me)|butane
pair_coeff     1    11       23480.015        2.919708       1383.9296       8.7719648      0.42456807    # buck6d->(zn4_o4@zn4o)|Zn4O_benz/gaussian->(zn4_o4@zn4o)|Zn4O_benz <--> buck6d->(o4_zn4@zn4o)|Zn4O_benz/gaussian->(o4_zn4@zn4o)|Zn4O_benz
pair_coeff     1    12       23480.015        2.919708       1383.9296       8.7719648      0.42457209    # buck6d->(zn4_o4@zn4o)|Zn4O_benz/gaussian->(zn4_o4@zn4o)|Zn4O_benz <--> buck6d->(o2_c2@eth)|ph-O-butyl/gaussian->(o2_c2@eth)|ph-O-butyl
pair_coeff     1    13       23480.015        2.919708       1383.9296       8.7719648      0.42456807    # buck6d->(zn4_o4@zn4o)|Zn4O_benz/gaussian->(zn4_o4@zn4o)|Zn4O_benz <--> buck6d->(o2_c1zn1@co2)|Zn4O_benz/gaussian->(o2_c1zn1@co2)|Zn4O_benz
pair_coeff     2     2            3680               4          32.805      0.10690769       0.9771554    # buck6d->(h1_c1@ph)|benzene/gaussian->(h1_c1@ph)|benzene <--> buck6d->(h1_c1@ph)|benzene/gaussian->(h1_c1@ph)|benzene
pair_coeff     2     3            3680               4          32.805      0.10690769       0.9771554    # buck6d->(h1_c1@ph)|benzene/gaussian->(h1_c1@ph)|benzene <--> buck6d->(h1_c1@me)|butane/gaussian->(h1_c1@me)|butane
pair_coeff     2     4       6157.8178       3.4682081       129.19572      0.78772886      0.73005908    # buck6d->(h1_c1@ph)|benzene/gaussian->(h1_c1@ph)|benzene <--> buck6d->(c3_c2h1@ph)|benzene/gaussian->(c3_c3@ph)|Zn4O_benz
pair_coeff     2     5       6157.8178       3.4682081       129.19572      0.78772886      0.73006542    # buck6d->(h1_c1@ph)|benzene/gaussian->(h1_c1@ph)|benzene <--> buck6d->(c3_c2h1@ph)|benzene/gaussian->(c3_c2h1@ph)|benzene
pair_coeff     2     6       6157.8178       3.4682081       129.19572      0.78772886      0.73006542    # buck6d->(h1_c1@ph)|benzene/gaussian->(h1_c1@ph)|benzene <--> buck6d->(c3_c2o1@ph)|ph-O-butyl/gaussian->(c3_c2o1@ph)|ph-O-butyl
pair_coeff     2     7       6157.8178       3.4883721        124.7792      0.72632262      0.73005908    # buck6d->(h1_c1@ph)|benzene/gaussian->(h1_c1@ph)|benzene <--> buck6d->(c3_c1o2@co2)|Zn4O_benz/gaussian->(c3_c1o2@co2)|Zn4O_benz
pair_coeff     2     8       4275.7736       3.3898305       102.89611       1.0848184      0.73006542    # buck6d->(h1_c1@ph)|benzene/gaussian->(h1_c1@ph)|benzene <--> buck6d->(c4_c2h2@me)|butane/gaussian->(c4_c2h2@me)|butane
pair_coeff     2     9       4275.7736       3.3898305       102.89611       1.0848184      0.73006542    # buck6d->(h1_c1@ph)|benzene/gaussian->(h1_c1@ph)|benzene <--> buck6d->(c4_c1h2o1@me)|ph-O-butyl/gaussian->(c4_c1h2o1@me)|ph-O-butyl
pair_coeff     2    10       4275.7736       3.3898305       102.89611       1.0848184      0.73006542    # buck6d->(h1_c1@ph)|benzene/gaussian->(h1_c1@ph)|benzene <--> buck6d->(c4_c1h3@me)|butane/gaussian->(c4_c1h3@me)|butane
pair_coeff     2    11       6320.6076       3.6144578       103.50278      0.44181916      0.75107727    # buck6d->(h1_c1@ph)|benzene/gaussian->(h1_c1@ph)|benzene <--> buck6d->(o4_zn4@zn4o)|Zn4O_benz/gaussian->(o4_zn4@zn4o)|Zn4O_benz
pair_coeff     2    12       6320.6076       3.6144578       103.50278      0.44181916      0.75109952    # buck6d->(h1_c1@ph)|benzene/gaussian->(h1_c1@ph)|benzene <--> buck6d->(o2_c2@eth)|ph-O-butyl/gaussian->(o2_c2@eth)|ph-O-butyl
pair_coeff     2    13       6320.6076       3.6144578       103.50278      0.44181916      0.75107727    # buck6d->(h1_c1@ph)|benzene/gaussian->(h1_c1@ph)|benzene <--> buck6d->(o2_c1zn1@co2)|Zn4O_benz/gaussian->(o2_c1zn1@co2)|Zn4O_benz
pair_coeff     3     3            3680               4          32.805      0.10690769       0.9771554    # buck6d->(h1_c1@me)|butane/gaussian->(h1_c1@me)|butane <--> buck6d->(h1_c1@me)|butane/gaussian->(h1_c1@me)|butane
pair_coeff     3     4       6157.8178       3.4682081       129.19572      0.78772886      0.73005908    # buck6d->(h1_c1@me)|butane/gaussian->(h1_c1@me)|butane <--> buck6d->(c3_c2h1@ph)|benzene/gaussian->(c3_c3@ph)|Zn4O_benz
pair_coeff     3     5       6157.8178       3.4682081       129.19572      0.78772886      0.73006542    # buck6d->(h1_c1@me)|butane/gaussian->(h1_c1@me)|butane <--> buck6d->(c3_c2h1@ph)|benzene/gaussian->(c3_c2h1@ph)|benzene
pair_coeff     3     6       6157.8178       3.4682081       129.19572      0.78772886      0.73006542    # buck6d->(h1_c1@me)|butane/gaussian->(h1_c1@me)|butane <--> buck6d->(c3_c2o1@ph)|ph-O-butyl/gaussian->(c3_c2o1@ph)|ph-O-butyl
pair_coeff     3     7       6157.8178       3.4883721        124.7792      0.72632262      0.73005908    # buck6d->(h1_c1@me)|butane/gaussian->(h1_c1@me)|butane <--> buck6d->(c3_c1o2@co2)|Zn4O_benz/gaussian->(c3_c1o2@co2)|Zn4O_benz
pair_coeff     3     8       4275.7736       3.3898305       102.89611       1.0848184      0.73006542    # buck6d->(h1_c1@me)|butane/gaussian->(h1_c1@me)|butane <--> buck6d->(c4_c2h2@me)|butane/gaussian->(c4_c2h2@me)|butane
pair_coeff     3     9       4275.7736       3.3898305       102.89611       1.0848184      0.73006542    # buck6d->(h1_c1@me)|butane/gaussian->(h1_c1@me)|butane <--> buck6d->(c4_c1h2o1@me)|ph-O-butyl/gaussian->(c4_c1h2o1@me)|ph-O-butyl
pair_coeff     3    10       4275.7736       3.3898305       102.89611       1.0848184      0.73006542    # buck6d->(h1_c1@me)|butane/gaussian->(h1_c1@me)|butane <--> buck6d->(c4_c1h3@me)|butane/gaussian->(c4_c1h3@me)|butane
pair_coeff     3    11       6320.6076       3.6144578       103.50278      0.44181916      0.75107727    # buck6d->(h1_c1@me)|butane/gaussian->(h1_c1@me)|butane <--> buck6d->(o4_zn4@zn4o)|Zn4O_benz/gaussian->(o4_zn4@zn4o)|Zn4O_benz
pair_coeff     3    12       6320.6076       3.6144578       103.50278      0.44181916      0.75109952    # buck6d->(h1_c1@me)|butane/gaussian->(h1_c1@me)|butane <--> buck6d->(o2_c2@eth)|ph-O-butyl/gaussian->(o2_c2@eth)|ph-O-butyl
pair_coeff     3    13       6320.6076       3.6144578       103.50278      0.44181916      0.75107727    # buck6d->(h1_c1@me)|butane/gaussian->(h1_c1@me)|butane <--> buck6d->(o2_c1zn1@co2)|Zn4O_benz/gaussian->(o2_c1zn1@co2)|Zn4O_benz
pair_coeff     4     4           10304       3.0612245       457.17971       4.5218516      0.60800239    # buck6d->(c3_c2h1@ph)|benzene/gaussian->(c3_c3@ph)|Zn4O_benz <--> buck6d->(c3_c2h1@ph)|benzene/gaussian->(c3_c3@ph)|Zn4O_benz
pair_coeff     4     5           10304       3.0612245       457.17971       4.5218516      0.60800605    # buck6d->(c3_c2h1@ph)|benzene/gaussian->(c3_c3@ph)|Zn4O_benz <--> buck6d->(c3_c2h1@ph)|benzene/gaussian->(c3_c2h1@ph)|benzene
pair_coeff     4     6           10304       3.0612245       457.17971       4.5218516      0.60800605    # buck6d->(c3_c2h1@ph)|benzene/gaussian->(c3_c3@ph)|Zn4O_benz <--> buck6d->(c3_c2o1@ph)|ph-O-butyl/gaussian->(c3_c2o1@ph)|ph-O-butyl
pair_coeff     4     7           10304       3.0769231       443.36171       4.2093581      0.60800239    # buck6d->(c3_c2h1@ph)|benzene/gaussian->(c3_c3@ph)|Zn4O_benz <--> buck6d->(c3_c1o2@co2)|Zn4O_benz/gaussian->(c3_c1o2@co2)|Zn4O_benz
pair_coeff     4     8       7154.7377               3       358.35904               6      0.60800605    # buck6d->(c3_c2h1@ph)|benzene/gaussian->(c3_c3@ph)|Zn4O_benz <--> buck6d->(c4_c2h2@me)|butane/gaussian->(c4_c2h2@me)|butane
pair_coeff     4     9       7154.7377               3       358.35904               6      0.60800605    # buck6d->(c3_c2h1@ph)|benzene/gaussian->(c3_c3@ph)|Zn4O_benz <--> buck6d->(c4_c1h2o1@me)|ph-O-butyl/gaussian->(c4_c1h2o1@me)|ph-O-butyl
pair_coeff     4    10       7154.7377               3       358.35904               6      0.60800605    # buck6d->(c3_c2h1@ph)|benzene/gaussian->(c3_c3@ph)|Zn4O_benz <--> buck6d->(c4_c1h3@me)|butane/gaussian->(c4_c1h3@me)|butane
pair_coeff     4    11       10576.399       3.1746032       377.27092       2.7176691      0.61998309    # buck6d->(c3_c2h1@ph)|benzene/gaussian->(c3_c3@ph)|Zn4O_benz <--> buck6d->(o4_zn4@zn4o)|Zn4O_benz/gaussian->(o4_zn4@zn4o)|Zn4O_benz
pair_coeff     4    12       10576.399       3.1746032       377.27092       2.7176691       0.6199956    # buck6d->(c3_c2h1@ph)|benzene/gaussian->(c3_c3@ph)|Zn4O_benz <--> buck6d->(o2_c2@eth)|ph-O-butyl/gaussian->(o2_c2@eth)|ph-O-butyl
pair_coeff     4    13       10576.399       3.1746032       377.27092       2.7176691      0.61998309    # buck6d->(c3_c2h1@ph)|benzene/gaussian->(c3_c3@ph)|Zn4O_benz <--> buck6d->(o2_c1zn1@co2)|Zn4O_benz/gaussian->(o2_c1zn1@co2)|Zn4O_benz
pair_coeff     5     5           10304       3.0612245       457.17971       4.5218516      0.60800971    # buck6d->(c3_c2h1@ph)|benzene/gaussian->(c3_c2h1@ph)|benzene <--> buck6d->(c3_c2h1@ph)|benzene/gaussian->(c3_c2h1@ph)|benzene
pair_coeff     5     6           10304       3.0612245       457.17971       4.5218516      0.60800971    # buck6d->(c3_c2h1@ph)|benzene/gaussian->(c3_c2h1@ph)|benzene <--> buck6d->(c3_c2o1@ph)|ph-O-butyl/gaussian->(c3_c2o1@ph)|ph-O-butyl
pair_coeff     5     7           10304       3.0769231       443.36171       4.2093581      0.60800605    # buck6d->(c3_c2h1@ph)|benzene/gaussian->(c3_c2h1@ph)|benzene <--> buck6d->(c3_c1o2@co2)|Zn4O_benz/gaussian->(c3_c1o2@co2)|Zn4O_benz
pair_coeff     5     8       7154.7377               3       358.35904               6      0.60800971    # buck6d->(c3_c2h1@ph)|benzene/gaussian->(c3_c2h1@ph)|benzene <--> buck6d->(c4_c2h2@me)|butane/gaussian->(c4_c2h2@me)|butane
pair_coeff     5     9       7154.7377               3       358.35904               6      0.60800971    # buck6d->(c3_c2h1@ph)|benzene/gaussian->(c3_c2h1@ph)|benzene <--> buck6d->(c4_c1h2o1@me)|ph-O-butyl/gaussian->(c4_c1h2o1@me)|ph-O-butyl
pair_coeff     5    10       7154.7377               3       358.35904               6      0.60800971    # buck6d->(c3_c2h1@ph)|benzene/gaussian->(c3_c2h1@ph)|benzene <--> buck6d->(c4_c1h3@me)|butane/gaussian->(c4_c1h3@me)|butane
pair_coeff     5    11       10576.399       3.1746032       377.27092       2.7176691      0.61998697    # buck6d->(c3_c2h1@ph)|benzene/gaussian->(c3_c2h1@ph)|benzene <--> buck6d->(o4_zn4@zn4o)|Zn4O_benz/gaussian->(o4_zn4@zn4o)|Zn4O_benz
pair_coeff     5    12       10576.399       3.1746032       377.27092       2.7176691      0.61999948    # buck6d->(c3_c2h1@ph)|benzene/gaussian->(c3_c2h1@ph)|benzene <--> buck6d->(o2_c2@eth)|ph-O-butyl/gaussian->(o2_c2@eth)|ph-O-butyl
pair_coeff     5    13       10576.399       3.1746032       377.27092       2.7176691      0.61998697    # buck6d->(c3_c2h1@ph)|benzene/gaussian->(c3_c2h1@ph)|benzene <--> buck6d->(o2_c1zn1@co2)|Zn4O_benz/gaussian->(o2_c1zn1@co2)|Zn4O_benz
pair_coeff     6     6           10304       3.0612245       457.17971       4.5218516      0.60800971    # buck6d->(c3_c2o1@ph)|ph-O-butyl/gaussian->(c3_c2o1@ph)|ph-O-butyl <--> buck6d->(c3_c2o1@ph)|ph-O-butyl/gaussian->(c3_c2o1@ph)|ph-O-butyl
pair_coeff     6     7           10304       3.0769231       443.36171       4.2093581      0.60800605    # buck6d->(c3_c2o1@ph)|ph-O-butyl/gaussian->(c3_c2o1@ph)|ph-O-butyl <--> buck6d->(c3_c1o2@co2)|Zn4O_benz/gaussian->(c3_c1o2@co2)|Zn4O_benz
pair_coeff     6     8       7154.7377               3       358.35904               6      0.60800971    # buck6d->(c3_c2o1@ph)|ph-O-butyl/gaussian->(c3_c2o1@ph)|ph-O-butyl <--> buck6d->(c4_c2h2@me)|butane/gaussian->(c4_c2h2@me)|butane
pair_coeff     6     9       7154.7377               3       358.35904               6      0.60800971    # buck6d->(c3_c2o1@ph)|ph-O-butyl/gaussian->(c3_c2o1@ph)|ph-O-butyl <--> buck6d->(c4_c1h2o1@me)|ph-O-butyl/gaussian->(c4_c1h2o1@me)|ph-O-butyl
pair_coeff     6    10       7154.7377               3       358.35904               6      0.60800971    # buck6d->(c3_c2o1@ph)|ph-O-butyl/gaussian->(c3_c2o1@ph)|ph-O-butyl <--> buck6d->(c4_c1h3@me)|butane/gaussian->(c4_c1h3@me)|butane
pair_coeff     6    11       10576.399       3.1746032       377.27092       2.7176691      0.61998697    # buck6d->(c3_c2o1@ph)|ph-O-butyl/gaussian->(c3_c2o1@ph)|ph-O-butyl <--> buck6d->(o4_zn4@zn4o)|Zn4O_benz/gaussian->(o4_zn4@zn4o)|Zn4O_benz
pair_coeff     6    12       10576.399       3.1746032       377.27092       2.7176691      0.61999948    # buck6d->(c3_c2o1@ph)|ph-O-butyl/gaussian->(c3_c2o1@ph)|ph-O-butyl <--> buck6d->(o2_c2@eth)|ph-O-butyl/gaussian->(o2_c2@eth)|ph-O-butyl
pair_coeff     6    13       10576.399       3.1746032       377.27092       2.7176691      0.61998697    # buck6d->(c3_c2o1@ph)|ph-O-butyl/gaussian->(c3_c2o1@ph)|ph-O-butyl <--> buck6d->(o2_c1zn1@co2)|Zn4O_benz/gaussian->(o2_c1zn1@co2)|Zn4O_benz
pair_coeff     7     7           10304       3.0927835       429.89352       3.9170177      0.60800239    # buck6d->(c3_c1o2@co2)|Zn4O_benz/gaussian->(c3_c1o2@co2)|Zn4O_benz <--> buck6d->(c3_c1o2@co2)|Zn4O_benz/gaussian->(c3_c1o2@co2)|Zn4O_benz
pair_coeff     7     8       7154.7377       3.0150754       347.74176       5.5933807      0.60800605    # buck6d->(c3_c1o2@co2)|Zn4O_benz/gaussian->(c3_c1o2@co2)|Zn4O_benz <--> buck6d->(c4_c2h2@me)|butane/gaussian->(c4_c2h2@me)|butane
pair_coeff     7     9       7154.7377       3.0150754       347.74176       5.5933807      0.60800605    # buck6d->(c3_c1o2@co2)|Zn4O_benz/gaussian->(c3_c1o2@co2)|Zn4O_benz <--> buck6d->(c4_c1h2o1@me)|ph-O-butyl/gaussian->(c4_c1h2o1@me)|ph-O-butyl
pair_coeff     7    10       7154.7377       3.0150754       347.74176       5.5933807      0.60800605    # buck6d->(c3_c1o2@co2)|Zn4O_benz/gaussian->(c3_c1o2@co2)|Zn4O_benz <--> buck6d->(c4_c1h3@me)|butane/gaussian->(c4_c1h3@me)|butane
pair_coeff     7    11       10576.399       3.1914894       365.45138       2.5231391      0.61998309    # buck6d->(c3_c1o2@co2)|Zn4O_benz/gaussian->(c3_c1o2@co2)|Zn4O_benz <--> buck6d->(o4_zn4@zn4o)|Zn4O_benz/gaussian->(o4_zn4@zn4o)|Zn4O_benz
pair_coeff     7    12       10576.399       3.1914894       365.45138       2.5231391       0.6199956    # buck6d->(c3_c1o2@co2)|Zn4O_benz/gaussian->(c3_c1o2@co2)|Zn4O_benz <--> buck6d->(o2_c2@eth)|ph-O-butyl/gaussian->(o2_c2@eth)|ph-O-butyl
pair_coeff     7    13       10576.399       3.1914894       365.45138       2.5231391      0.61998309    # buck6d->(c3_c1o2@co2)|Zn4O_benz/gaussian->(c3_c1o2@co2)|Zn4O_benz <--> buck6d->(o2_c1zn1@co2)|Zn4O_benz/gaussian->(o2_c1zn1@co2)|Zn4O_benz
pair_coeff     8     8            4968       2.9411765       280.22525       7.9168726      0.60800971    # buck6d->(c4_c2h2@me)|butane/gaussian->(c4_c2h2@me)|butane <--> buck6d->(c4_c2h2@me)|butane/gaussian->(c4_c2h2@me)|butane
pair_coeff     8     9            4968       2.9411765       280.22525       7.9168726      0.60800971    # buck6d->(c4_c2h2@me)|butane/gaussian->(c4_c2h2@me)|butane <--> buck6d->(c4_c1h2o1@me)|ph-O-butyl/gaussian->(c4_c1h2o1@me)|ph-O-butyl
pair_coeff     8    10            4968       2.9411765       280.22525       7.9168726      0.60800971    # buck6d->(c4_c2h2@me)|butane/gaussian->(c4_c2h2@me)|butane <--> buck6d->(c4_c1h3@me)|butane/gaussian->(c4_c1h3@me)|butane
pair_coeff     8    11       7343.8824       3.1088083       297.03952       3.6436247      0.61998697    # buck6d->(c4_c2h2@me)|butane/gaussian->(c4_c2h2@me)|butane <--> buck6d->(o4_zn4@zn4o)|Zn4O_benz/gaussian->(o4_zn4@zn4o)|Zn4O_benz
pair_coeff     8    12       7343.8824       3.1088083       297.03952       3.6436247      0.61999948    # buck6d->(c4_c2h2@me)|butane/gaussian->(c4_c2h2@me)|butane <--> buck6d->(o2_c2@eth)|ph-O-butyl/gaussian->(o2_c2@eth)|ph-O-butyl
pair_coeff     8    13       7343.8824       3.1088083       297.03952       3.6436247      0.61998697    # buck6d->(c4_c2h2@me)|butane/gaussian->(c4_c2h2@me)|butane <--> buck6d->(o2_c1zn1@co2)|Zn4O_benz/gaussian->(o2_c1zn1@co2)|Zn4O_benz
pair_coeff     9     9            4968       2.9411765       280.22525       7.9168726      0.60800971    # buck6d->(c4_c1h2o1@me)|ph-O-butyl/gaussian->(c4_c1h2o1@me)|ph-O-butyl <--> buck6d->(c4_c1h2o1@me)|ph-O-butyl/gaussian->(c4_c1h2o1@me)|ph-O-butyl
pair_coeff     9    10            4968       2.9411765       280.22525       7.9168726      0.60800971    # buck6d->(c4_c1h2o1@me)|ph-O-butyl/gaussian->(c4_c1h2o1@me)|ph-O-butyl <--> buck6d->(c4_c1h3@me)|butane/gaussian->(c4_c1h3@me)|butane
pair_coeff     9    11       7343.8824       3.1088083       297.03952       3.6436247      0.61998697    # buck6d->(c4_c1h2o1@me)|ph-O-butyl/gaussian->(c4_c1h2o1@me)|ph-O-butyl <--> buck6d->(o4_zn4@zn4o)|Zn4O_benz/gaussian->(o4_zn4@zn4o)|Zn4O_benz
pair_coeff     9    12       7343.8824       3.1088083       297.03952       3.6436247      0.61999948    # buck6d->(c4_c1h2o1@me)|ph-O-butyl/gaussian->(c4_c1h2o1@me)|ph-O-butyl <--> buck6d->(o2_c2@eth)|ph-O-butyl/gaussian->(o2_c2@eth)|ph-O-butyl
pair_coeff     9    13       7343.8824       3.1088083       297.03952       3.6436247      0.61998697    # buck6d->(c4_c1h2o1@me)|ph-O-butyl/gaussian->(c4_c1h2o1@me)|ph-O-butyl <--> buck6d->(o2_c1zn1@co2)|Zn4O_benz/gaussian->(o2_c1zn1@co2)|Zn4O_benz
pair_coeff    10    10            4968       2.9411765       280.22525       7.9168726      0.60800971    # buck6d->(c4_c1h3@me)|butane/gaussian->(c4_c1h3@me)|butane <--> buck6d->(c4_c1h3@me)|butane/gaussian->(c4_c1h3@me)|butane
pair_coeff    10    11       7343.8824       3.1088083       297.03952       3.6436247      0.61998697    # buck6d->(c4_c1h3@me)|butane/gaussian->(c4_c1h3@me)|butane <--> buck6d->(o4_zn4@zn4o)|Zn4O_benz/gaussian->(o4_zn4@zn4o)|Zn4O_benz
pair_coeff    10    12       7343.8824       3.1088083       297.03952       3.6436247      0.61999948    # buck6d->(c4_c1h3@me)|butane/gaussian->(c4_c1h3@me)|butane <--> buck6d->(o2_c2@eth)|ph-O-butyl/gaussian->(o2_c2@eth)|ph-O-butyl
pair_coeff    10    13       7343.8824       3.1088083       297.03952       3.6436247      0.61998697    # buck6d->(c4_c1h3@me)|butane/gaussian->(c4_c1h3@me)|butane <--> buck6d->(o2_c1zn1@co2)|Zn4O_benz/gaussian->(o2_c1zn1@co2)|Zn4O_benz
pair_coeff    11    11           10856       3.2967033        308.7755       1.6022517      0.63270113    # buck6d->(o4_zn4@zn4o)|Zn4O_benz/gaussian->(o4_zn4@zn4o)|Zn4O_benz <--> buck6d->(o4_zn4@zn4o)|Zn4O_benz/gaussian->(o4_zn4@zn4o)|Zn4O_benz
pair_coeff    11    12           10856       3.2967033        308.7755       1.6022517      0.63271443    # buck6d->(o4_zn4@zn4o)|Zn4O_benz/gaussian->(o4_zn4@zn4o)|Zn4O_benz <--> buck6d->(o2_c2@eth)|ph-O-butyl/gaussian->(o2_c2@eth)|ph-O-butyl
pair_coeff    11    13           10856       3.2967033        308.7755       1.6022517      0.63270113    # buck6d->(o4_zn4@zn4o)|Zn4O_benz/gaussian->(o4_zn4@zn4o)|Zn4O_benz <--> buck6d->(o2_c1zn1@co2)|Zn4O_benz/gaussian->(o2_c1zn1@co2)|Zn4O_benz
pair_coeff    12    12           10856       3.2967033        308.7755       1.6022517      0.63272774    # buck6d->(o2_c2@eth)|ph-O-butyl/gaussian->(o2_c2@eth)|ph-O-butyl <--> buck6d->(o2_c2@eth)|ph-O-butyl/gaussian->(o2_c2@eth)|ph-O-butyl
pair_coeff    12    13           10856       3.2967033        308.7755       1.6022517      0.63271443    # buck6d->(o2_c2@eth)|ph-O-butyl/gaussian->(o2_c2@eth)|ph-O-butyl <--> buck6d->(o2_c1zn1@co2)|Zn4O_benz/gaussian->(o2_c1zn1@co2)|Zn4O_benz
pair_coeff    13    13           10856       3.2967033        308.7755       1.6022517      0.63270113    # buck6d->(o2_c1zn1@co2)|Zn4O_benz/gaussian->(o2_c1zn1@co2)|Zn4O_benz <--> buck6d->(o2_c1zn1@co2)|Zn4O_benz/gaussian->(o2_c1zn1@co2)|Zn4O_benz

bond_style hybrid class2 morse harmonic

bond_coeff    13 class2     1.529408   314.283599  -801.423177  1192.116976    # mm3->(c4_c2h2@me,c4_c2h2@me)|butane
bond_coeff     8 class2     1.394074   455.360160 -1161.168407  1727.238006    # mm3->(c3_c2h1@ph,c3_c2o1@ph)|ph-O-butyl
bond_coeff     4 class2     1.101213   365.915223  -933.083819  1387.962181    # mm3->(c4_c2h2@me,h1_c1@me)|butane
bond_coeff     9 class2     1.488000   355.167780  -905.677839  1347.195786    # mm3->(c3_c1o2@co2,c3_c3@ph)|Zn4O_benz
bond_coeff     3 class2     1.094000   390.634200  -996.117210  1481.724350    # mm3->(c3_c2h1@ph,h1_c1@ph)|benzene
bond_coeff     6 class2     1.099390   374.841138  -955.844901  1421.819290    # mm3->(c4_c1h3@me,h1_c1@me)|butane
bond_coeff    10 class2     1.357631   390.806068  -996.555472  1482.376265    # mm3->(c3_c2o1@ph,o2_c2@eth)|ph-O-butyl
bond_coeff     1 morse    50.000000    1.463685     1.987000    # morse->(o4_zn4@zn4o,zn4_o4@zn4o)|Zn4O_benz
bond_coeff    12 class2     1.515294   290.719566  -741.334894  1102.735655    # mm3->(c4_c1h2o1@me,c4_c2h2@me)|ph-O-butyl
bond_coeff     5 class2     1.101119   356.182160  -908.264508  1351.043455    # mm3->(c4_c1h2o1@me,h1_c1@me)|ph-O-butyl
bond_coeff     7 class2     1.394000   509.335200 -1298.804760  1931.972080    # mm3->(c3_c2h1@ph,c3_c2h1@ph)|benzene
bond_coeff    14 class2     1.427071   299.914044  -764.780811  1137.611457    # mm3->(c4_c1h2o1@me,o2_c2@eth)|ph-O-butyl
bond_coeff    15 class2     1.529182   318.631885  -812.511306  1208.610568    # mm3->(c4_c1h3@me,c4_c2h2@me)|butane
bond_coeff     2 morse    50.000000    1.547773     1.917000    # morse->(o2_c1zn1@co2,zn4_o4@zn4o)|Zn4O_benz
bond_coeff    11 class2     1.275000   620.986080 -1583.514504  2355.477825    # mm3->(c3_c1o2@co2,o2_c1zn1@co2)|Zn4O_benz

angle_style hybrid class2/p6 cosine/buck6d

angle_coeff    25 class2/p6      113.257375    69.461048   -55.717548    12.769521    -9.145496    16.468519    # mm3->(c3_c2o1@ph,o2_c2@eth,c4_c1h2o1@me)|ph-O-butyl
angle_coeff    25 class2/p6 bb 0.0 1.0 1.0
angle_coeff    25 class2/p6 ba 0.0 0.0 1.0 1.0
angle_coeff    26 class2/p6      135.606000     6.762360    -5.424366     1.243173    -0.890357     1.603288    # mm3->(c3_c1o2@co2,o2_c1zn1@co2,zn4_o4@zn4o)|Zn4O_benz
angle_coeff    26 class2/p6 bb 0.0 1.0 1.0
angle_coeff    26 class2/p6 ba 0.0 0.0 1.0 1.0
angle_coeff    18 class2/p6      116.818943    25.946625   -20.812849     4.769954    -3.416228     6.151685    # mm3->(h1_c1@me,c4_c1h2o1@me,o2_c2@eth)|ph-O-butyl
angle_coeff    18 class2/p6 bb 0.0 1.0 1.0
angle_coeff    18 class2/p6 ba 0.0 0.0 1.0 1.0
angle_coeff     4 class2/p6      117.296000    57.983640   -46.511050    10.659547    -7.634339    13.747340    # mm3->(c3_c1o2@co2,c3_c3@ph,c3_c2h1@ph)|Zn4O_benz
angle_coeff     4 class2/p6 bb 0.0 1.0 1.0
angle_coeff     4 class2/p6 ba 0.0 0.0 1.0 1.0
angle_coeff     6 class2/p6      120.350000    36.185820   -29.026127     6.652298    -4.764358     8.579296    # mm3->(c3_c2h1@ph,c3_c2h1@ph,h1_c1@ph)|benzene
angle_coeff     6 class2/p6 bb    93.378120     1.394000     1.094000
angle_coeff     6 class2/p6 ba   -25.179000    53.523360     1.394000     1.094000
angle_coeff     1 class2/p6      113.584000     0.000000    -0.000000     0.000000    -0.000000     0.000000    # mm3->(o2_c1zn1@co2,zn4_o4@zn4o,o4_zn4@zn4o)|Zn4O_benz
angle_coeff     1 class2/p6 bb     0.000000     1.917000     1.987000
angle_coeff     1 class2/p6 ba     0.000000     0.000000     1.917000     1.987000
angle_coeff    17 class2/p6      118.378973    29.889438   -23.975541     5.494789    -3.935353     7.086487    # mm3->(c4_c2h2@me,c4_c1h2o1@me,h1_c1@me)|ph-O-butyl
angle_coeff    17 class2/p6 bb 0.0 1.0 1.0
angle_coeff    17 class2/p6 ba 0.0 0.0 1.0 1.0
angle_coeff    23 class2/p6      113.161464    65.779678   -52.764571    12.092749    -8.660793    15.595703    # mm3->(c4_c1h3@me,c4_c2h2@me,c4_c2h2@me)|butane
angle_coeff    23 class2/p6 bb 0.0 1.0 1.0
angle_coeff    23 class2/p6 ba 0.0 0.0 1.0 1.0
angle_coeff    11 class2/p6      123.006000   111.866700   -89.732857    20.565256   -14.728780    26.522474    # mm3->(o2_c1zn1@co2,c3_c1o2@co2,o2_c1zn1@co2)|Zn4O_benz
angle_coeff    11 class2/p6 bb 0.0 1.0 1.0
angle_coeff    11 class2/p6 ba 0.0 0.0 1.0 1.0
angle_coeff    22 class2/p6      110.602540    44.106999   -35.380028     8.108505    -5.807289    10.457328    # mm3->(c4_c1h3@me,c4_c2h2@me,h1_c1@me)|butane
angle_coeff    22 class2/p6 bb 0.0 1.0 1.0
angle_coeff    22 class2/p6 ba 0.0 0.0 1.0 1.0
angle_coeff    13 class2/p6      110.342401    30.766657   -24.679194     5.656055    -4.050851     7.294466    # mm3->(c4_c1h2o1@me,c4_c2h2@me,h1_c1@me)|ph-O-butyl
angle_coeff    13 class2/p6 bb 0.0 1.0 1.0
angle_coeff    13 class2/p6 ba 0.0 0.0 1.0 1.0
angle_coeff     7 class2/p6      117.983314    23.459678   -18.817967     4.312760    -3.088787     5.562055    # mm3->(c3_c2o1@ph,c3_c2h1@ph,h1_c1@ph)|ph-O-butyl
angle_coeff     7 class2/p6 bb 0.0 1.0 1.0
angle_coeff     7 class2/p6 ba 0.0 0.0 1.0 1.0
angle_coeff    16 class2/p6      114.761173    31.409569   -25.194901     5.774246    -4.135499     7.446894    # mm3->(h1_c1@me,c4_c1h2o1@me,h1_c1@me)|ph-O-butyl
angle_coeff    16 class2/p6 bb 0.0 1.0 1.0
angle_coeff    16 class2/p6 ba 0.0 0.0 1.0 1.0
angle_coeff    24 class2/p6      103.992000    50.214120   -40.278800     9.231221    -6.611375    11.905265    # mm3->(zn4_o4@zn4o,o4_zn4@zn4o,zn4_o4@zn4o)|Zn4O_benz
angle_coeff    24 class2/p6 bb     7.625640     1.987000     1.987000
angle_coeff    24 class2/p6 ba    18.416640    18.416640     1.987000     1.987000
angle_coeff    10 class2/p6      116.368000    77.191620   -61.918557    14.190688   -10.163332    18.301360    # mm3->(c3_c3@ph,c3_c1o2@co2,o2_c1zn1@co2)|Zn4O_benz
angle_coeff    10 class2/p6 bb 0.0 1.0 1.0
angle_coeff    10 class2/p6 ba 0.0 0.0 1.0 1.0
angle_coeff    14 class2/p6      110.134130    42.675831   -34.232030     7.845403    -5.618856    10.118012    # mm3->(c4_c2h2@me,c4_c2h2@me,h1_c1@me)|butane
angle_coeff    14 class2/p6 bb 0.0 1.0 1.0
angle_coeff    14 class2/p6 ba 0.0 0.0 1.0 1.0
angle_coeff     2 class2/p6      123.103000     5.755200    -4.616481     1.058020    -0.757751     1.364500    # mm3->(o2_c1zn1@co2,zn4_o4@zn4o,o2_c1zn1@co2)|Zn4O_benz
angle_coeff     2 class2/p6 bb 0.0 1.0 1.0
angle_coeff     2 class2/p6 ba 0.0 0.0 1.0 1.0
angle_coeff     9 class2/p6      144.582528    30.574828   -24.525320     5.620789    -4.025594     7.248986    # mm3->(c3_c2h1@ph,c3_c2o1@ph,c3_c2h1@ph)|ph-O-butyl
angle_coeff     9 class2/p6 bb 0.0 1.0 1.0
angle_coeff     9 class2/p6 ba 0.0 0.0 1.0 1.0
angle_coeff    20 class2/p6      107.691286    37.470927   -30.056964     6.888549    -4.933560     8.883982    # mm3->(h1_c1@me,c4_c1h3@me,h1_c1@me)|butane
angle_coeff    20 class2/p6 bb 0.0 1.0 1.0
angle_coeff    20 class2/p6 ba 0.0 0.0 1.0 1.0
angle_coeff    12 class2/p6      107.271015    38.858990   -31.170386     7.143726    -5.116317     9.213077    # mm3->(h1_c1@me,c4_c2h2@me,h1_c1@me)|butane
angle_coeff    12 class2/p6 bb 0.0 1.0 1.0
angle_coeff    12 class2/p6 ba 0.0 0.0 1.0 1.0
angle_coeff     5 class2/p6      117.296000    57.983640   -46.511050    10.659547    -7.634339    13.747340    # mm3->(c3_c1o2@co2,c3_c3@ph,c3_c2o1@ph)|Zn4O_benz
angle_coeff     5 class2/p6 bb 0.0 1.0 1.0
angle_coeff     5 class2/p6 ba 0.0 0.0 1.0 1.0
angle_coeff    21 class2/p6      110.959949    44.958991   -36.063446     8.265133    -5.919465    10.659326    # mm3->(c4_c2h2@me,c4_c1h3@me,h1_c1@me)|butane
angle_coeff    21 class2/p6 bb 0.0 1.0 1.0
angle_coeff    21 class2/p6 ba 0.0 0.0 1.0 1.0
angle_coeff     8 class2/p6      159.969859     8.440703    -6.770633     1.551715    -1.111334     2.001206    # mm3->(c3_c2h1@ph,c3_c2o1@ph,o2_c2@eth)|ph-O-butyl
angle_coeff     8 class2/p6 bb 0.0 1.0 1.0
angle_coeff     8 class2/p6 ba 0.0 0.0 1.0 1.0
angle_coeff     3 class2/p6      126.007089    47.182599   -37.847093     8.673915    -6.212234    11.186522    # mm3->(c3_c2h1@ph,c3_c2h1@ph,c3_c2o1@ph)|ph-O-butyl
angle_coeff     3 class2/p6 bb 0.0 1.0 1.0
angle_coeff     3 class2/p6 ba 0.0 0.0 1.0 1.0
angle_coeff    15 class2/p6      113.161464    65.779678   -52.764571    12.092749    -8.660793    15.595703    # mm3->(c4_c1h2o1@me,c4_c2h2@me,c4_c2h2@me)|butane
angle_coeff    15 class2/p6 bb 0.0 1.0 1.0
angle_coeff    15 class2/p6 ba 0.0 0.0 1.0 1.0
angle_coeff    19 class2/p6      114.447479    32.354254   -25.952671     5.947914    -4.259880     7.670870    # mm3->(c4_c2h2@me,c4_c1h2o1@me,o2_c2@eth)|ph-O-butyl
angle_coeff    19 class2/p6 bb 0.0 1.0 1.0
angle_coeff    19 class2/p6 ba 0.0 0.0 1.0 1.0

dihedral_style opls

dihedral_coeff     5     0.000000     5.972000     0.000000     0.000000    # cos3->(c3_c2o1@ph,c3_c2h1@ph,c3_c2h1@ph,c3_c2o1@ph)|ph-O-butyl
dihedral_coeff    18     0.000000     3.012000     0.000000     0.000000    # cos3->(c3_c3@ph,c3_c1o2@co2,o2_c1zn1@co2,zn4_o4@zn4o)|Zn4O_benz
dihedral_coeff    19     0.000000     0.076000     0.000000     0.000000    # cos3->(o2_c1zn1@co2,c3_c1o2@co2,o2_c1zn1@co2,zn4_o4@zn4o)|Zn4O_benz
dihedral_coeff     9     0.000000     5.972000     0.000000     0.000000    # cos3->(c3_c2h1@ph,c3_c2o1@ph,c3_c2h1@ph,c3_c2h1@ph)|ph-O-butyl
dihedral_coeff     7     0.000000     0.000000     0.000000     0.000000    # cos3->(c3_c2o1@ph,c3_c2h1@ph,c3_c3@ph,c3_c1o2@co2)|Zn4O_benz
dihedral_coeff    28     0.000000     0.000000     0.010079     0.000000    # cos3->(h1_c1@me,c4_c1h2o1@me,o2_c2@eth,c3_c2o1@ph)|ph-O-butyl
dihedral_coeff    14     0.000000     5.117273     0.000000     0.000000    # cos3->(h1_c1@ph,c3_c2h1@ph,c3_c2o1@ph,c3_c2h1@ph)|ph-O-butyl
dihedral_coeff    21     0.000000     0.000000     0.514450     0.000000    # cos3->(o2_c2@eth,c4_c1h2o1@me,c4_c2h2@me,h1_c1@me)|ph-O-butyl
dihedral_coeff    10     0.000000     5.000000     0.000000     0.000000    # cos3->(c3_c1o2@co2,c3_c2h1@ph,c3_c2o1@ph,o2_c2@eth)|co2-ph-o-me
dihedral_coeff     8     0.000000     6.281542     0.000000     0.000000    # cos3->(c3_c2h1@ph,c3_c2h1@ph,c3_c2o1@ph,o2_c2@eth)|ph-O-prop
dihedral_coeff    11     0.000000     0.000000     0.000000     0.000000    # cos3->(c3_c2h1@ph,c3_c2o1@ph,c3_c3@ph,c3_c1o2@co2)|Zn4O_benz
dihedral_coeff    27    -0.370853    -0.236138     1.970124     0.000000    # cos3->(c4_c1h2o1@me,c4_c2h2@me,c4_c2h2@me,c4_c1h3@me)|butane
dihedral_coeff    31     0.000000     0.000000     0.870477     0.000000    # cos3->(h1_c1@me,c4_c1h3@me,c4_c2h2@me,c4_c2h2@me)|butane
dihedral_coeff    30     0.000000     0.000000     0.343076     0.000000    # cos3->(h1_c1@me,c4_c1h3@me,c4_c2h2@me,h1_c1@me)|butane
dihedral_coeff    16     0.000000     3.664689     0.000000     0.000000    # cos3->(c3_c2h1@ph,c3_c2h1@ph,c3_c2o1@ph,c3_c2h1@ph)|ph-O-butyl
dihedral_coeff    13     0.000000     1.902000     0.000000     0.000000    # cos3->(o2_c1zn1@co2,c3_c1o2@co2,c3_c3@ph,c3_c2o1@ph)|Zn4O_benz
dihedral_coeff    24     0.000000     0.000000     0.302052     0.000000    # cos3->(h1_c1@me,c4_c2h2@me,c4_c2h2@me,h1_c1@me)|butane
dihedral_coeff    29     0.803729    -0.768357     1.298183     0.000000    # cos3->(c4_c2h2@me,c4_c1h2o1@me,o2_c2@eth,c3_c2o1@ph)|ph-O-butyl
dihedral_coeff    23    -1.702642    -0.327922     0.811155     0.000000    # cos3->(o2_c2@eth,c4_c1h2o1@me,c4_c2h2@me,c4_c2h2@me)|ph-O-butyl
dihedral_coeff    25     0.000000     0.000000    -0.052641     0.000000    # cos3->(c4_c1h3@me,c4_c2h2@me,c4_c2h2@me,h1_c1@me)|butane
dihedral_coeff     4     0.000000     6.045595     0.000000     0.000000    # cos3->(c3_c2o1@ph,c3_c2h1@ph,c3_c2h1@ph,h1_c1@ph)|ph-O-butyl
dihedral_coeff     6     0.000000     0.000000     0.000000     0.000000    # cos3->(h1_c1@ph,c3_c2h1@ph,c3_c3@ph,c3_c1o2@co2)|Zn4O_benz
dihedral_coeff    15     0.000000     3.982172     0.000000     0.000000    # cos3->(h1_c1@ph,c3_c2h1@ph,c3_c2o1@ph,o2_c2@eth)|ph-O-butyl
dihedral_coeff     1     0.000000     0.000000     0.000000     0.000000    # cos3->(zn4_o4@zn4o,o4_zn4@zn4o,zn4_o4@zn4o,o2_c1zn1@co2)|Zn4O_benz
dihedral_coeff     3     0.000000     0.000000     0.000000     0.000000    # cos3->(c3_c1o2@co2,o2_c1zn1@co2,zn4_o4@zn4o,o2_c1zn1@co2)|Zn4O_benz
dihedral_coeff    26     0.000000     0.000000    -0.052641     0.000000    # cos3->(c4_c1h2o1@me,c4_c2h2@me,c4_c2h2@me,h1_c1@me)|butane
dihedral_coeff     2     0.000000     0.000000     0.000000     0.000000    # cos3->(c3_c1o2@co2,o2_c1zn1@co2,zn4_o4@zn4o,o4_zn4@zn4o)|Zn4O_benz
dihedral_coeff    17     4.763804     2.750105     0.191432     0.000000    # cos3->(c3_c2h1@ph,c3_c2o1@ph,o2_c2@eth,c4_c1h2o1@me)|ph-O-butyl
dihedral_coeff    20     0.000000     0.000000     0.037991     0.000000    # cos3->(h1_c1@me,c4_c1h2o1@me,c4_c2h2@me,h1_c1@me)|ph-O-butyl
dihedral_coeff    12     0.000000     1.902000     0.000000     0.000000    # cos3->(o2_c1zn1@co2,c3_c1o2@co2,c3_c3@ph,c3_c2h1@ph)|Zn4O_benz
dihedral_coeff    22     0.000000     0.000000     0.343642     0.000000    # cos3->(h1_c1@me,c4_c1h2o1@me,c4_c2h2@me,c4_c2h2@me)|ph-O-butyl

improper_style inversion/harmonic

improper_coeff     2     3.563253     0.000000    # harm->(c3_c2h1@ph,c3_c2h1@ph,c3_c2o1@ph,h1_c1@ph)|ph-O-butyl
improper_coeff     4    40.574160     0.000000    # harm->(c3_c1o2@co2,c3_c3@ph,o2_c1zn1@co2,o2_c1zn1@co2)|Zn4O_benz
improper_coeff     3     0.000000     0.000000    # harm->(c3_c2o1@ph,c3_c2h1@ph,c3_c2h1@ph,o2_c2@eth)|ph-O-butyl
improper_coeff     1     0.000000     0.000000    # harm->(c3_c2h1@ph,c3_c1o2@co2,c3_c2h1@ph,c3_c2o1@ph)|xxx

special_bonds lj 0.00 0.00 1.00 coul 1.00 1.00 1.00
Finding 1-2 1-3 1-4 neighbors ...
  special bond factors lj:    0        0        1       
  special bond factors coul:  1        1        1       
     4 = max # of 1-2 neighbors
    12 = max # of 1-3 neighbors
    22 = max # of special neighbors
  special bonds CPU = 0.001 seconds




change_box all  triclinic
Changing box ...
  triclinic box = (0.0000000 0.0000000 0.0000000) to (51.703312 51.703314 51.703314) with tilt (0.0000000 0.0000000 0.0000000)
kspace_style pppm      1e-06
# ------------------------ MOF-FF FORCE FIELD END --------------------------


min_style		cg
minimize		0.0 1.0e-8 1000 10000
WARNING: Using 'neigh_modify every 1 delay 0 check yes' setting during minimization (../min.cpp:188)
PPPM initialization ...
  using 12-bit tables for long-range coulomb (../kspace.cpp:340)
  G vector (1/distance) = 0.26888087
  grid = 48 48 48
  stencil order = 5
  estimated absolute RMS force accuracy = 0.00031856066
  estimated relative force accuracy = 9.5933598e-07
  using double precision FFTW3
  3d grid and FFT values/proc = 8246 2016
Neighbor list info ...
  update every 1 steps, delay 0 steps, check yes
  max neighbors/atom: 2000, page size: 100000
  master list distance cutoff = 14
  ghost atom cutoff = 14
  binsize = 7, bins = 8 8 8
  1 neighbor lists, perpetual/occasional/extra = 1 0 0
  (1) pair buck6d/coul/gauss/long, perpetual
      attributes: half, newton on
      pair build: half/bin/newton/tri
      stencil: half/bin/3d/tri
      bin: standard
WARNING: Inconsistent image flags (../domain.cpp:814)
Per MPI rank memory allocation (min/avg/max) = 23.58 | 23.65 | 23.85 Mbytes
Step Temp E_pair E_mol TotEng Press 
       0            0   -119433.73    32118.633   -87315.097   -24973.003 
    1000            0   -119788.01    14753.381   -105034.63   0.55676402 
Loop time of 25.7555 on 56 procs for 1000 steps with 8384 atoms

97.9% CPU use with 56 MPI tasks x no OpenMP threads

Minimization stats:
  Stopping criterion = max iterations
  Energy initial, next-to-last, final = 
     -87315.0966070014  -105034.582240311  -105034.629686677
  Force two-norm initial, final = 6925.3771 8.9696311
  Force max component initial, final = 248.01747 0.35278347
  Final line search alpha, max atom move = 0.021600934 0.0076204526
  Iterations, force evaluations = 1000 1997

MPI task timing breakdown:
Section |  min time  |  avg time  |  max time  |%varavg| %total
---------------------------------------------------------------
Pair    | 16.131     | 19.152     | 21.696     |  33.0 | 74.36
Bond    | 0.58783    | 0.81614    | 1.0143     |  16.2 |  3.17
Kspace  | 2.6428     | 5.3923     | 8.6571     |  68.2 | 20.94
Neigh   | 0.028407   | 0.029029   | 0.029599   |   0.2 |  0.11
Comm    | 0.274      | 0.30772    | 0.34358    |   3.9 |  1.19
Output  | 4.1008e-05 | 4.2064e-05 | 7.0095e-05 |   0.0 |  0.00
Modify  | 0          | 0          | 0          |   0.0 |  0.00
Other   |            | 0.05876    |            |       |  0.23

Nlocal:        149.714 ave         167 max         134 min
Histogram: 12 0 4 12 0 4 0 20 0 4
Nghost:        4891.07 ave        5011 max        4679 min
Histogram: 4 4 0 0 4 8 16 0 4 16
Neighs:        51231.3 ave       58133 max       45171 min
Histogram: 4 8 4 12 0 0 16 8 0 4

Total # of neighbors = 2868952
Ave neighs/atom = 342.19370
Ave special neighs/atom = 6.1984733
Neighbor list builds = 8
Dangerous builds = 0

velocity     	all create 350 3204550 dist gaussian mom yes rot no

#-----------------------------------------------------------------------------
variable        N      equal step
variable        T      equal temp
variable		R		equal 0.00198722
variable		sysvol		equal vol
variable		sysmass		equal mass(all)/6.0221367e+23
variable		sysdensity	equal v_sysmass/v_sysvol/1.0e-24
variable		coulomb		equal ecoul+elong
variable		etotal		equal etotal
variable		pe		equal pe
variable		ke		equal ke
variable		evdwl		equal evdwl
variable		epair		equal epair
variable		ebond		equal ebond
variable		eangle		equal eangle
variable		edihed		equal edihed
variable		eimp		equal eimp
variable		lx		equal lx
variable		ly		equal ly
variable		lz		equal lz
variable		Nthermo		equal 0
variable		cella		equal lx
variable		cellb		equal sqrt(ly*ly+xy*xy)
variable		cellc		equal sqrt(lz*lz+xz*xz+yz*yz)
variable		cellalpha	equal acos((xy*xz+ly*yz)/(v_cellb*v_cellc))
variable		cellbeta	equal acos(xz/v_cellc)
variable		cellgamma	equal acos(xy/v_cellb)
variable		p		equal press
variable		pxx		equal pxx
variable		pyy		equal pyy
variable		pzz		equal pzz
variable		pyz		equal pyz
variable		pxz		equal pxz
variable		pxy		equal pxy
variable		sxx		equal -pxx
variable		syy		equal -pyy
variable		szz		equal -pzz
variable		syz		equal -pyz
variable		sxz		equal -pxz
variable		sxy		equal -pxy
variable		enthalpy    equal enthalpy
variable		fmax		equal fmax
variable	        fnorm		equal fnorm
variable		time equal step*dt+0.000001
variable		surfacetension equal 0.5*v_lz*(0.5*(v_sxx+v_syy)-v_szz)


#-------------------------------------------------------------------------------
timestep	    1
thermo_style custom step evdwl ebond eangle edihed eimp pe ke etotal temp press vol v_coulomb enthalpy spcpu
thermo 1000

variable        TEMP        equal 350

fix             1 all npt temp  ${TEMP} ${TEMP} 100  tri  0 0 1000
fix             1 all npt temp  350 ${TEMP} 100  tri  0 0 1000
fix             1 all npt temp  350 350 100  tri  0 0 1000
run		100000
PPPM initialization ...
  using 12-bit tables for long-range coulomb (../kspace.cpp:340)
  G vector (1/distance) = 0.26888087
  grid = 48 48 48
  stencil order = 5
  estimated absolute RMS force accuracy = 0.00031856066
  estimated relative force accuracy = 9.5933598e-07
  using double precision FFTW3
  3d grid and FFT values/proc = 8246 2016
WARNING: Inconsistent image flags (../domain.cpp:814)
Per MPI rank memory allocation (min/avg/max) = 22.47 | 22.54 | 22.74 Mbytes
Step E_vdwl E_bond E_angle E_dihed E_impro PotEng KinEng TotEng Temp Press Volume v_coulomb Enthalpy S/CPU 
    1000   -529.78398    315.09446    11490.531    2943.5238    4.2316512   -105034.63    8745.8457   -96288.784          350    2893.0979    138214.98   -119258.23   -90457.098            0 
    2000   -120.05286    3891.0831    15184.855    4405.2686    161.30371   -95597.037    9027.5899   -86569.447    361.27512     452.1669    136656.24   -119119.49   -85668.282    71.536131 
    3000   -81.057428    3671.6067    15114.984    4301.3763    160.86823   -95975.129    8553.8102   -87421.319    342.31493    1121.3359    137221.06   -119142.91    -85177.27     69.00546 
    4000   -72.440677    3735.8495    15103.295    4334.2279     160.4591   -95891.501    8815.1414   -87076.359    352.77314   -357.00707    136716.85   -119152.89   -87788.187    66.890348 
    5000   -51.289294    3679.0405    15048.928    4289.1235    164.78584   -96007.498    8830.6447   -87176.853    353.39357    342.81086    137216.61   -119138.09   -86490.832    67.206573 
    6000   -20.532843    3669.4247    15075.186    4201.0454    166.04038   -96060.884    8763.9167   -87296.968    350.72318   -421.18009    137323.22   -119152.05   -88140.473    66.253518 
    7000    10.600247    3683.6019    15086.791    4202.4817    162.56931   -96022.255    8758.4441    -87263.81    350.50417    220.22723    137401.13    -119168.3   -86822.507    66.294569 
    8000   -41.518636    3703.4382    15124.582    4123.6681    161.15304   -96087.208    8735.5602   -87351.648    349.58838    113.77165    137595.34   -119158.53   -87123.344    67.484775 
    9000   -54.719217    3779.7578    15163.562     4246.244    172.14644   -95853.341    8651.7054   -87201.635     346.2326   -722.05371    137101.52   -119160.33   -88645.371    66.602232 
   10000   -54.694099    3709.2758    15076.536    4135.8716    154.34408   -96068.606    8779.1782   -87289.427    351.33393     106.2875    137967.42   -119089.94   -87075.565    66.072311 
   11000   -45.108272    3683.1336    15031.326    4152.8697    163.53769   -96156.255    8762.2459   -87394.009    350.65632   -613.81247    138176.69   -119142.01   -88630.943    68.419361 
   12000     69.18565    3774.3027    14973.689    4037.1603    142.20028   -96094.254    8960.3249   -87133.929    358.58324    -218.6789    137819.94   -119090.79   -87573.465    68.334152 
   13000    16.535226    3684.7396    15104.276    3982.9551    152.19314   -96186.773    8813.6691   -87373.103    352.71422    55.393523    137843.82   -119127.47   -87261.745    66.646757 
   14000   -4.7929684    3699.4899    15169.571    3998.1237     149.0441   -96090.623    8728.6791   -87361.943    349.31301   -33.478162    138426.76   -119102.06    -87429.53    67.093457 
   15000   -75.261887    3768.2728    15125.095     4069.651    150.91405   -96065.548    8840.4121   -87225.136    353.78445    93.841264    137656.12   -119104.22   -87036.743    68.540101 
   16000   -38.955746     3738.416    15100.132    3975.8329    167.67088   -96147.149    8790.7092    -87356.44    351.79539   -617.04615    137357.31   -119090.25   -88592.516    68.152045 
   17000  0.038502024    3673.9806    15081.531    3951.7479     156.9128   -96251.684    8663.0254   -87588.659    346.68561    270.60014    138068.07   -119115.89   -87043.783    67.232622 
   18000    28.468363    3794.3106     15082.11    3983.7776    163.21055   -96067.417    8760.0218   -87307.396    350.56731   -328.51639    138092.72   -119119.29   -87969.008    67.711459 
   19000     86.75825     3674.979    15139.127    3934.2498    158.30832   -96112.765    8624.8382   -87487.927     345.1574    590.46273    137716.89   -119106.19   -86302.006    67.739089 
   20000   -3.9986215    3722.2806    15182.071    3955.5419    153.93142   -96113.919    8653.7239   -87460.195    346.31338   -479.09539    137869.11   -119123.75   -88423.502    65.310606 
   21000   -15.695668    3690.6958    15084.256    3925.2285    155.23669   -96219.462    8851.5843   -87367.878    354.23155    242.21295    137723.78   -119059.18   -86881.378    64.849938 
   22000  -0.38015006    3727.6544    15008.547     3927.503    153.85995   -96324.991    8816.1464   -87508.845    352.81336    553.70944    137449.47   -119142.18   -86398.901    64.280972 
   23000    47.125061    3716.0726    15174.585    3825.7472    160.94471   -96157.688    8897.7409   -87259.947    356.07869    761.57282    137880.78   -119082.16   -85728.539    63.322665 
   24000    18.509814    3649.1545    15157.151    3870.3378     169.9148   -96195.499    8682.5113   -87512.987    347.46542    719.89932    137713.24   -119060.57   -86067.137    67.221277 
   25000    -4.970887    3696.3116    15119.657    3878.4688    173.75559   -96194.163    8778.6779   -87415.485    351.31391    338.10151    138297.39   -119057.39   -86733.559    67.222689 
   26000   -91.292589     3770.277    15111.785    3914.5504    158.81437   -96189.634    8637.1057   -87552.528    345.64833   -1062.4183    137756.27   -119053.77   -89686.963    68.306865 
   27000   -17.904983    3811.0101    15190.396    3896.3702    165.15793   -96069.381    8767.5303   -87301.851    350.86779     297.8909    137721.54   -119114.41   -86703.529    65.333117 
   28000    54.888286    3764.4789    15076.497       3749.7    159.77498   -96269.311    8719.3066   -87550.004    348.93793    1056.7652    137632.48   -119074.65   -85428.835    67.491198 
   29000   -36.470787    3655.2407    15130.224    3914.3284    152.49076   -96262.481    8772.5831   -87489.898       351.07    568.50871    137776.79   -119078.29   -86347.574    65.393139 
   30000    -8.051637    3806.4753    15134.863    3841.3695    163.13248   -96149.528    8722.6675   -87426.861    349.07243   -491.53463    138236.94   -119087.32   -88417.816    67.287827 
   31000   -17.872722    3736.4028    15140.927    3862.3987    177.56612   -96171.549    8661.8322   -87509.716    346.63786   -641.28827    137520.99   -119070.97   -88795.886    67.555184 
   32000   -4.9841721    3710.1503    15095.615    3845.9379    150.89366   -96244.631    8726.1311     -87518.5    349.21104   -80.348032    138071.68   -119042.24   -87680.291    66.210902 
   33000   -19.104792    3639.6316    15184.602    3831.3023    144.96346   -96296.236    8703.5397   -87592.697    348.30696   -130.24802    137655.88   -119077.63   -87854.179    66.961296 
   34000    17.531578    3758.2324     15084.35    3854.5594     175.0379   -96192.204    8753.8511   -87438.353    350.32037   -14.586022     137726.1   -119081.92   -87467.651    66.954885 
   35000    2.2057827    3720.4545    15058.647    3866.9145    176.80096    -96265.23    8713.5519   -87551.678    348.70763   -904.73328    138272.92   -119090.25   -89376.135    67.323375 
   36000    33.239869    3730.8372    15057.493    3754.0513    158.98097   -96317.352    8771.2967   -87546.056    351.01852   -751.41478    138174.66   -119051.95   -89060.258    68.542041 
   37000    20.148438    3788.9399    15086.996    3888.6009    172.00757   -96102.513    8682.3428    -87420.17    347.45867   -481.38244    137943.34   -119059.21   -88388.597    67.799823 
   38000    5.8931257    3663.8766    15038.667    3864.2312    159.42948   -96343.178    8787.6594   -87555.519    351.67334    166.56195    137958.35   -119075.28   -87220.399    65.944343 
   39000    72.315891    3760.3184    15061.954    3797.2871    160.42557   -96240.333    8735.9872   -87504.345    349.60547    274.23043    138174.26   -119092.63   -86951.736     67.59584 
   40000    58.560656    3694.9398    15093.514    3875.4404    179.65607   -96119.828    8856.9208   -87262.907    354.44511   -293.28638    137875.53   -119021.94    -87852.64    68.837342 
   41000   -31.495136    3861.8462    15072.349    3866.4631    152.71436   -96102.967    8673.8395   -87429.128    347.11838   -491.39553    138156.08   -119024.84   -88419.223    67.425886 
   42000   -15.155998    3782.1508    15096.759    3796.9827      154.079   -96225.475     8727.687   -87497.788     349.2733   -725.52207    137779.85   -119040.29   -88955.635    66.547289 
   43000    30.089179    3683.8471    15117.428    3793.3717    168.74503   -96295.399     8787.295   -87508.104    351.65876    805.09042    137878.35   -119088.88   -85889.216    66.658606 
   44000    54.229336    3755.0516    15140.276    3766.5944    169.89472   -96209.637    8855.0163   -87354.621     354.3689    425.54668    138104.42   -119095.68   -86497.522    66.385427 
   45000    18.497562    3735.1435    15112.835    3802.9014    161.72217    -96233.37    8786.3701       -87447    351.62175    -471.5651    138110.92   -119064.47   -88396.829    66.900913 
   46000    10.385867    3642.6535     15107.69    3772.6988    148.72862    -96379.53     8787.894   -87591.636    351.68273   -176.25396    137718.65   -119061.69   -87945.639    68.318755 
   47000   -38.109195    3619.0381    15180.295    3878.7899    176.45784   -96205.448    8768.2341   -87437.213    350.89596    192.11413    137442.65   -119021.92   -87052.128    68.129869 
   48000   -31.464466    3751.0002     15143.17    3837.9096    150.37867   -96259.932    8763.2717    -87496.66    350.69737   -579.65069    138438.68   -119110.93   -88666.967    66.096369 
   49000   -37.082673    3744.0648    15077.337    3842.4627    182.98765   -96253.096    8778.3783   -87474.718    351.30192    -233.7713    137844.87   -119062.86   -87944.674    68.996475 
   50000    23.226345    3739.8187    15253.871    3819.2331    176.20669   -96052.481    8750.7316    -87301.75    350.19553    489.34653    138019.29   -119064.84   -86316.759    69.671981 
   51000    26.084434     3676.512    15101.475    3868.5806    169.94707   -96264.149    8761.5519   -87502.598    350.62854    674.53592    137410.17   -119106.75   -86150.837    67.684424 
   52000      38.7605    3656.9279     15134.34    3809.7135     169.1963   -96193.896    8882.1845   -87311.711    355.45614   -381.14293    138182.28   -119002.83   -88079.808    67.219493 
   53000   -7.1329591    3655.1396     15163.13    3816.8948    166.17843   -96229.989    8728.7182   -87501.271    349.31457    52.659065    138004.45    -119024.2   -87395.287    66.857027 
   54000   0.80723022      3646.43    15132.292    3768.2027    162.64888   -96322.825    8681.1985   -87641.626    347.41288   -396.98025    138076.58   -119033.21   -88441.028    69.234562 
   55000    4.6328423     3765.244    15175.224    3812.2634    158.62839   -96129.889    8728.9205   -87400.968    349.32267   -1060.9017    138185.06   -119045.88    -89538.99    69.307783 
   56000    12.945181    3729.0132    15062.495    3886.1099    157.92108   -96241.553    8705.9371   -87535.616     348.4029    247.49629    137811.67   -119090.04   -87038.187    65.049205 
   57000   -13.736115    3697.4298    14994.965    3896.3822    152.02594   -96333.426    8797.7233   -87535.703    352.07609    347.93957     137930.9   -119060.49   -86835.795    68.140445 
   58000    70.063842    3680.4457    15086.249      3833.65    172.41891   -96236.326    8815.8746   -87420.451    352.80248    600.11496    137488.73   -119079.15   -86217.141    66.846372 
   59000   -23.632891    3752.7924    15152.204     3897.802    161.25015   -96103.099    8820.8315   -87282.268    353.00085   -132.05735    137738.95   -119043.51   -87547.542    66.075323 
   60000    53.213467    3678.1122    15129.768    3784.2078    158.30689   -96259.637    8684.9236   -87574.713    347.56196    -232.9347    137686.47   -119063.25    -88042.45    67.104132 
   61000    83.246152    3809.8515    15209.661    3806.2926    158.93907   -95960.506    8715.0479   -87245.458     348.7675    1101.4294    137900.41    -119028.5   -85030.334    65.386008 
   62000    19.961484    3685.6022    15184.875     3796.194    155.85957   -96180.463    8663.5074   -87516.955     346.7049   -548.32445    138040.57   -119022.95   -88620.831    68.972181 
   63000   -56.773435    3789.4226    15165.584    3846.9666    175.58656   -96142.141    8894.9238   -87247.217    355.96595   -391.42654    138161.79   -119062.93   -88035.922    68.950634 
   64000    84.316587    3634.2261     15128.15    3752.7518    141.13257   -96335.385    8757.1593   -87578.225    350.45276   -279.45941    138230.25   -119075.96   -88141.601    69.058403 
   65000    9.6537258    3690.8691     15015.64    3852.1724    146.68652   -96373.885    8699.6949    -87674.19    348.15309    214.52205    138319.22   -119088.91   -87241.446    69.320544 
   66000    3.5385476    3668.7089    15263.631    3829.4586    163.33348   -96126.706    8678.5067   -87448.199    347.30516    247.63568     137609.8   -119055.38   -86951.219    67.039473 
   67000   -15.207205    3729.1619    15158.281    3757.3973    155.06162   -96287.858    8673.1922   -87614.666    347.09248   -687.43909    138553.41   -119072.55   -89003.746    67.482102 
   68000    9.5222545    3777.4083    15203.374    3811.7096    161.23937   -96112.366    8766.1124   -87346.254    350.81105    843.60279    138107.69   -119075.62   -85647.104    66.751972 
   69000   -23.040919     3690.821    15150.133    3785.0304    169.22022   -96298.139    8767.6046   -87530.534    350.87077   -162.05946    137890.72    -119070.3   -87856.435     66.50321 
   70000   -6.9467873    3736.7199    15180.467    3795.7998    165.62238   -96193.951    8768.1636   -87425.787    350.89314   -216.04597    137711.12   -119065.61   -87859.689    67.143606 
   71000   -4.1555913    3687.4847    15181.403    3810.4301    155.65731   -96204.595    8760.0398   -87444.555    350.56803   -8.4260314    137725.83   -119035.41   -87461.479     69.04337 
   72000    54.407565    3592.4036    15296.344    3821.4706    175.81054   -96113.157    8825.7675   -87287.389    353.19839     246.2967    137235.58   -119053.59   -86794.441    68.760341 
   73000     49.55845    3693.1451    15188.906    3848.0857    159.70756   -96126.397    8616.8029   -87509.594    344.83584   -86.887285    137735.71    -119065.8   -87684.127    68.779604 
   74000    15.167781    3582.0755    15121.192    3793.9727    155.37609   -96384.114     8750.025   -87634.089    350.16725    378.08164    138124.24    -119051.9   -86872.481    68.826398 
   75000    25.076936    3703.6251    15154.017    3739.4497    171.28922   -96237.853    8806.1621   -87431.691     352.4138    56.181947    137710.36   -119031.31   -87318.857    67.647954 
   76000   -6.5307998    3666.6236    15120.118    3826.0683    152.68387   -96267.682    8763.3483   -87504.334    350.70044   -48.846179    137584.36   -119026.65   -87602.345    66.129212 
   77000    47.836548    3704.9049    15124.118    3758.3017    158.78026   -96257.848    8725.7356   -87532.112    349.19521   -178.48726    137546.95   -119051.79   -87890.155    70.068487 
   78000    35.346642    3766.4049    15107.992    3791.9807    172.09077   -96202.218     8791.041   -87411.177    351.80867    560.71862    137556.09   -119076.03   -86286.311    70.846521 
   79000    43.356764    3756.2985    15145.797    3848.4737    151.31845   -96119.208     8646.525   -87472.683    346.02528    145.89032    137736.32   -119064.45   -87179.627    68.079438 
   80000    53.793808    3749.4253    15037.096    3768.5104    170.13605   -96305.058    8712.6911   -87592.367    348.67319   -323.62466       138493   -119084.02   -88246.017     70.85985 
   81000    22.658293     3717.776    15125.025    3813.1901    173.32825    -96176.94    8755.5247   -87421.415    350.38734    1182.5014     137737.1   -119028.92   -85046.061    68.984829 
   82000    25.916691    3713.7464    15188.548    3777.8064    157.09083   -96186.505    8733.6827   -87452.822    349.51325    101.04743     137783.7   -119049.61   -87249.774    68.758715 
   83000    21.864128    3697.6372    15156.102    3919.4034    156.47485   -96142.554    8736.9712   -87405.583    349.64485    438.75479    137654.91   -119094.04   -86524.758    67.909994 
   84000   -27.752871    3707.8795    15223.895    3828.9905    174.44393   -96136.973    8748.8285   -87388.144    350.11937     534.5388    137624.22   -119044.43   -86315.267    70.517997 
   85000    15.058851    3795.7887    15113.165    3811.1808    148.28331   -96199.614    8802.6258   -87396.988    352.27228   -753.40455    137820.47   -119083.09   -88911.309    66.992159 
   86000    46.109899    3697.3421    15108.079    3780.3964    181.51506   -96254.995    8725.7206   -87529.274    349.19461   -75.647607    138050.84   -119068.44   -87681.578    68.869622 
   87000   -17.908106     3764.345    15070.153    3987.6524    192.25835   -96115.023    8854.5339   -87260.489    354.34959    87.087721    137856.78   -119111.52   -87085.399    66.881146 
   88000    49.500251    3654.0476    15088.029    3891.0186    166.26018   -96211.064     8665.225   -87545.839    346.77364    137.56064    137616.45   -119059.92   -87269.755    67.394096 
   89000    78.776856     3698.641    15133.223    3826.7525     167.2189   -96176.191    8759.1463   -87417.045    350.53228   -278.31379    138023.56    -119080.8   -87977.272    67.501074 
   90000    57.454706    3751.4203    15240.497    3805.5829    167.75754   -96025.712    8772.7066   -87253.005    351.07495   -835.58624    137623.04   -119048.42   -88930.103    65.751078 
   91000    7.5915045    3723.8938    15203.207    3925.5976    143.70715   -96123.744    8795.8214   -87327.922    351.99998    707.33474    137275.39   -119127.74   -85911.824    67.537012 
   92000    53.544025    3700.1063    15213.252    3836.5084    177.09136   -96058.563    8628.6427   -87429.921    345.30965   -859.79817    138075.13   -119039.07   -89161.283    67.625991 
   93000    64.351744    3726.8437     15027.99    3813.7589    157.95198   -96296.783    8723.6507   -87573.133    349.11178   -536.01361    137750.63   -119087.68   -88649.958    69.115689 
   94000   -3.0710323    3752.2483    15106.072    3831.1949    155.37622   -96207.002    8773.6893   -87433.313    351.11427   -146.14121     137794.2   -119048.82   -87726.997    66.303803 
   95000   -8.8864804    3787.4454    15145.036    3807.9969    153.35875   -96193.434    8629.3972   -87564.037    345.33985    27.197177     138168.4   -119078.38   -87509.233    66.641476 
   96000   -26.120671    3640.1433    15201.371    3796.1436    164.55975   -96245.513    8739.3643   -87506.149    349.74062   -839.16259    138142.46   -119021.61   -89196.781    66.384391 
   97000    69.272707    3744.7333    15053.148    3728.8134    155.95202   -96298.556    8643.6941   -87654.861      345.912     275.2779    138032.62   -119050.47   -87100.709    68.327522 
   98000    29.534666    3663.8663    15177.815    3773.0508    148.03827   -96228.589    8790.6758   -87437.914    351.79405    276.78806    138186.68   -119020.89     -86880.1    67.559912 
   99000    38.882736    3676.6665    15162.338     3684.687    162.23147   -96346.618    8790.0699   -87556.548    351.76981   -68.110455    137780.25   -119071.42   -87693.408    65.304754 
  100000    27.204937    3776.1585    15045.328    3837.2404    171.47799   -96155.561    8826.9904    -87328.57    353.24733   -416.88503    137894.67   -119012.97   -88166.948    64.994496 
  101000    3.7609849    3759.6121     15111.23    3777.1553    166.16619   -96226.362    8699.1973   -87527.164    348.13318   -920.21251    138051.09   -119044.29   -89379.859    65.790353 
Loop time of 1482.95 on 56 procs for 100000 steps with 8384 atoms

Performance: 5.826 ns/day, 4.119 hours/ns, 67.433 timesteps/s
97.0% CPU use with 56 MPI tasks x no OpenMP threads

MPI task timing breakdown:
Section |  min time  |  avg time  |  max time  |%varavg| %total
---------------------------------------------------------------
Pair    | 787.45     | 931.17     | 1059       | 232.1 | 62.79
Bond    | 30.566     | 42.018     | 51.501     | 119.3 |  2.83
Kspace  | 231.8      | 369.66     | 525.63     | 405.6 | 24.93
Neigh   | 15.633     | 15.714     | 15.807     |   1.2 |  1.06
Comm    | 15.714     | 18.149     | 24.3       |  58.2 |  1.22
Output  | 0.0070853  | 0.0071904  | 0.0088835  |   0.3 |  0.00
Modify  | 87.135     | 102.37     | 107.33     |  55.8 |  6.90
Other   |            | 3.864      |            |       |  0.26

Nlocal:        149.714 ave         200 max         119 min
Histogram: 6 6 8 9 13 5 6 2 0 1
Nghost:        4843.89 ave        4985 max        4671 min
Histogram: 8 0 1 1 6 13 12 8 6 1
Neighs:        52084.9 ave       70157 max       40090 min
Histogram: 4 5 7 13 13 7 2 3 1 1

Total # of neighbors = 2916756
Ave neighs/atom = 347.89552
Ave special neighs/atom = 6.1984733
Neighbor list builds = 3995
Dangerous builds = 0
write_data      data_1_relax.*
System init for write_data ...
PPPM initialization ...
  using 12-bit tables for long-range coulomb (../kspace.cpp:340)
  G vector (1/distance) = 0.26889118
  grid = 48 48 48
  stencil order = 5
  estimated absolute RMS force accuracy = 0.00031849497
  estimated relative force accuracy = 9.5913815e-07
  using double precision FFTW3
  3d grid and FFT values/proc = 8246 2016
WARNING: Not all mixed pair coeffs generated from mixing. Use write_data with 'pair ij' option to store all pair coeffs. (../write_data.cpp:312)
unfix 1

fix             1 all npt temp  ${TEMP} ${TEMP} 100  tri  2000 2000 1000
fix             1 all npt temp  350 ${TEMP} 100  tri  2000 2000 1000
fix             1 all npt temp  350 350 100  tri  2000 2000 1000
run		500000
PPPM initialization ...
  using 12-bit tables for long-range coulomb (../kspace.cpp:340)
  G vector (1/distance) = 0.26889118
  grid = 48 48 48
  stencil order = 5
  estimated absolute RMS force accuracy = 0.00031849497
  estimated relative force accuracy = 9.5913815e-07
  using double precision FFTW3
  3d grid and FFT values/proc = 8246 2016
WARNING: Inconsistent image flags (../domain.cpp:814)
Per MPI rank memory allocation (min/avg/max) = 22.51 | 22.71 | 23.06 Mbytes
Step E_vdwl E_bond E_angle E_dihed E_impro PotEng KinEng TotEng Temp Press Volume v_coulomb Enthalpy S/CPU 
  101000    3.7609849    3759.6121     15111.23    3777.1553    166.16619   -96226.362    8699.1973   -87527.165    348.13318   -920.21211    138051.09   -119044.29   -89379.859            0 
  102000   -28.071063    3672.8495    15202.094    3978.4692    154.62703   -96064.297    8766.0683   -87298.229    350.80929    1460.0243    133395.08   -119044.27   -84457.854    64.903722 
  103000    8.2787408    3610.1091    15236.212    3887.2238    165.23994   -96193.599    8654.4782   -87539.121    346.34356    2421.4151    132228.42   -119100.66   -82869.626    65.573387 
  104000   -91.601391    3631.4575    15174.947    4032.7612    148.02913   -96148.989    8857.6093   -87291.379    354.47267    1059.6983    129444.44   -119044.58   -85290.866    63.641571 
  105000   -118.13998    3666.1548    15161.529    4182.1019    167.65527    -95970.37    8821.8117   -87148.559    353.04008    2716.2254    125913.85   -119029.67   -82160.688    63.120104 
  106000   -235.73439    3596.0411    15266.185    4262.3115    166.59011   -96014.985    8758.5024   -87256.482    350.50651    1526.1227    123383.14   -119070.38   -84510.352      64.1743 
  107000   -289.89756    3512.0934    15313.519    4378.4301    168.15201   -96044.492    8671.2594   -87373.232    347.01513    2941.8647    119641.94   -119126.79   -82240.105    63.071128 
  108000   -358.46018    3562.7147    15309.076    4457.7997     180.6095   -95971.693    8733.1238   -87238.569    349.49088    3303.9666    117424.71   -119123.43   -81580.463    62.067205 
  109000   -523.10843    3756.4807    15403.507    4580.8412    177.62789   -95789.296    8750.0584   -87039.238    350.16859    1613.9213    113990.28   -119184.64   -84356.204    61.212101 
  110000   -576.87652    3527.9033    15415.947    4660.1966    168.73494   -95938.217    8587.1568    -87351.06    343.64943    1545.5082    111452.07   -119134.12   -84838.969     58.51132 
  111000   -657.10984    3710.2265      15277.1    4686.8136    177.31737   -96026.205    8872.7067   -87153.498    355.07685     1744.226       111015   -119220.55   -84329.527     58.41806 
  112000   -759.28128     3606.053    15368.479    4785.4791    151.20833   -96052.432    8772.2877   -87280.144    351.05818    1452.8173    108204.22   -119204.37    -84987.53    56.006501 
  113000   -732.03652    3531.8007    15456.513    4757.8856    169.71653   -95960.933    8690.4421   -87270.491     347.7828    2227.7756    107411.26   -119144.81   -83780.718    54.921699 
  114000   -858.59596    3641.1536     15430.36    4825.5422    177.85173   -96026.305    8667.9607   -87358.344    346.88312   -237.43898    106602.87   -119242.62   -87727.489    56.620441 
  115000   -831.97826    3547.7432    15352.323    4765.6032    165.62859   -96194.006    8644.6308   -87549.375    345.94948    1542.6498    105909.44   -119193.33   -85166.628    57.079916 
  116000   -876.94741    3610.8294    15346.411    4862.1185    162.35457   -96128.386    8792.0727   -87336.313    351.84996    2209.5628    105393.55   -119233.15   -83940.089    57.579351 
  117000   -911.09072    3674.1313    15464.945    4786.2504    172.33415   -95951.163    8792.9611   -87158.202    351.88551    791.20703    105120.54   -119137.73   -85945.222    56.105602 
  118000   -916.97904    3625.5202    15340.875    4879.7741    170.24014   -96110.952    8716.3736   -87394.578    348.82055    1981.2457    105212.23   -119210.38    -84354.53    56.057696 
  119000   -949.88896    3628.8637    15361.114    4901.5908    156.12435   -96110.323    8862.8113   -87247.512    354.68085    1396.4324    104324.51   -119208.13   -85122.888     56.82813 
  120000   -977.63707    3686.5223     15348.64    4917.1677    173.85149   -96030.378    8886.6634   -87143.715    355.63538    1282.6511     103800.7   -119178.92   -85202.003    54.807666 
  121000   -1025.5029    3683.1787    15398.729    4902.8945      159.975   -96114.742    8740.0387   -87374.704    349.76761    628.74863    103914.37   -119234.02   -86421.845     54.64399 
  122000   -972.80525    3595.3567    15430.896    4915.0309    163.93322   -96092.477    8718.5559   -87373.921    348.90789    2337.4756    102746.55   -119224.89   -83871.324    54.848341 
  123000   -1008.4562    3586.7431    15424.523    4888.5091    150.40825   -96224.967    8646.0366    -87578.93    346.00574    1617.7441    102846.92   -119266.69   -85152.449    54.998942 
  124000   -1040.7813    3631.7898    15454.371    4944.3768    166.51005   -96074.921    8747.9056   -87327.015    350.08244    2624.9098    102686.85   -119231.19   -83395.996    54.914644 
  125000   -1058.5927    3630.3695    15447.149    4938.4457     168.6334   -96122.351    8785.7403    -87336.61    351.59654     1346.105    101973.37   -119248.36   -85334.714    56.690904 
  126000   -983.49353     3636.052    15381.664    4872.8801    161.37597   -96186.081     8718.561    -87467.52    348.90809    2305.5386    102336.86   -119254.56   -84026.554    55.800433 
  127000   -1036.5236    3697.8156    15424.482    4863.9998    165.92287   -96109.861    8879.9952   -87229.865    355.36853    1644.6884    102089.65   -119225.56   -84781.133    55.163082 
  128000   -1055.5153    3611.6437    15390.123    4932.2412    163.19726   -96216.224    8799.1072   -87417.116    352.13147    2320.7303    101582.78   -119257.91   -83978.999    55.424108 
  129000   -981.69496    3559.8879    15383.281    4815.4049    158.52501   -96300.758    8765.9068   -87534.851    350.80282    2714.8936    102079.84   -119236.16   -83493.108    53.746716 
  130000   -1077.6603    3662.6449    15282.009    4928.1732    155.01976   -96259.351    8783.6152   -87475.735     351.5115    677.71924     101735.3   -119209.54     -86470.2    54.498268 
  131000   -1079.6612    3636.7333    15457.017    4923.1392    177.28888   -96212.019    8617.2087    -87594.81    344.85207    1491.1499    101622.51   -119326.54   -85384.837    54.414789 
  132000   -1096.0856    3647.8288    15417.314    4998.9621    168.04668   -96128.189    8779.6433   -87348.546    351.35254    1758.6547    100722.15   -119264.26   -84765.206    55.312959 
  133000   -1079.7877     3686.314    15409.609    4900.1338    162.67991   -96170.588    8808.0851   -87362.503    352.49076    985.91226    101143.85   -119249.54   -85908.204    54.318745 
  134000   -1112.2202    3561.5929    15344.788    4950.2668    166.84451   -96305.515    8802.9855    -87502.53    352.28668     2002.325    99968.688   -119216.79   -84583.258    54.757171 
  135000    -1180.746    3622.6747    15411.339    4988.6861     171.6435   -96245.962    8738.3081   -87507.654    349.69835    2142.3688    99470.392   -119259.56   -84399.776      55.3034 
  136000   -1077.1444     3643.293     15415.93    4922.6404    166.89831   -96151.608    8751.3522   -87400.255    350.22037    2091.2165    100326.16   -119223.23   -84340.483    55.095093 
  137000   -1115.4506    3593.8886    15391.881    4941.2737    155.08237   -96287.023    8771.4542   -87515.569    351.02483    1552.1034    100354.26    -119253.7   -85243.966    55.314559 
  138000   -1085.8634     3671.526    15370.233     4883.164    153.27436   -96296.525    8808.2923   -87488.233    352.49905    1531.7437    100577.34   -119288.86   -85241.444    55.419237 
  139000   -1121.7253    3663.3455    15345.928    4933.6402    178.77172   -96300.113    8821.6775   -87478.436    353.03471    1818.4674    99349.033   -119300.07   -84843.651    54.577314 
  140000   -1109.2613    3583.0334    15414.097    4822.0283    172.47762   -96363.722    8670.0258   -87693.697    346.96576    2164.4184     99748.08    -119246.1   -84545.066    53.712755 
  141000   -1200.0256     3672.268    15514.321    4883.8568    181.13253    -96208.24    8702.4981   -87505.742    348.26527     1669.061    98894.497   -119259.79   -85098.498    55.356242 
  142000     -1164.74    3643.7385    15571.241    4918.3328    168.03923   -96143.001    8649.2688   -87493.732    346.13509    1384.3074     99282.71   -119279.61   -85489.343    54.761301 
  143000   -1221.9495    3706.8354    15416.087    4916.6188    167.00154   -96223.021    8666.5924   -87556.429    346.82836    1833.4068    98738.189   -119207.61   -84916.332    55.104731 
  144000   -1209.9896    3655.8239    15383.856    4922.8018    167.29412   -96334.302    8781.5979   -87552.704    351.43077    3015.9347    98412.689   -119254.09    -83224.09    53.696635 
  145000   -1251.2326    3679.3977    15526.843    4932.9867    155.49682   -96211.022    8644.6741   -87566.348    345.95121    1562.9102    97849.282   -119254.51   -85336.026    54.114276 
  146000   -1185.3134     3621.343    15383.672    4805.9506    168.47305   -96394.466    8768.2571   -87626.209    350.89688    706.32705    99280.192   -119188.59   -86603.519    54.533613 
  147000   -1212.8025    3647.8907    15484.377    4911.9165     168.9338   -96240.027     8917.465   -87322.562    356.86803    3007.8249    98483.857   -119240.34   -83002.465    55.746214 
  148000   -1187.6773    3719.8859     15389.11    4897.4091    157.32502   -96287.539    8654.0448   -87633.494    346.32622    2274.5215    98589.401   -119263.59   -84363.129    55.366905 
  149000   -1183.1351    3703.5922    15416.364    4908.9259    168.58803    -96261.76    8745.2169   -87516.543    349.97483    2226.2946    98519.113   -119276.09   -84317.802    54.938478 
  150000   -1168.5387    3694.3013    15488.227    4884.9301    165.88929   -96242.275     8858.945    -87383.33    354.52612    1812.1318    98096.854   -119307.08   -84790.818    53.958617 
  151000   -1193.8102    3683.2969    15443.112    4898.0279    165.40864   -96288.992    8767.6087   -87521.383    350.87093    1901.3113    98940.856   -119285.03   -84777.884    55.337697 
  152000   -1177.4214    3749.8454    15468.305    4849.5381    170.66673   -96202.922    8578.0289   -87624.893    343.28414    1236.5025    97876.932   -119263.86   -85859.867     53.64795 
  153000   -1162.3823    3663.3254    15489.049    4919.1864    155.40179   -96200.726    8778.2014   -87422.524    351.29484    3350.9413    98243.551   -119265.31   -82621.358    54.951377 
  154000   -1115.2696    3721.4305    15467.613    4798.9374    179.03214   -96176.134    8838.6999   -87337.435    353.71593    2565.6239    98705.705   -119227.88   -83644.164    55.827597 
  155000   -1150.0131    3612.6077    15410.574    4906.5631    172.91913   -96271.069    8709.3545   -87561.714    348.53966    2522.2318    99174.681   -119223.72   -83913.657    55.161911 
  156000   -1147.6132    3697.6643    15476.121    4906.5604    185.74748   -96213.277    8882.4601   -87330.817    355.46717    1577.4903    98463.916   -119331.76   -85065.549    55.363423 
  157000   -1238.3369    3618.5601    15469.378    4933.0487    174.05057   -96333.599    8795.2026   -87538.396    351.97521    2377.0525    97737.831    -119290.3   -84150.131    54.250035 
  158000   -1176.6067    3622.1421    15400.516    4945.8178    153.95128   -96342.377    8742.1648   -87600.212    349.85269    3185.2109    97595.337    -119288.2   -83066.613    55.089325 
  159000   -1282.5836     3706.083    15519.963     4987.294    158.36509    -96214.81    8686.5472   -87528.263    347.62693    1709.6951    97825.682   -119303.93   -85089.063    54.561294 
  160000   -1206.8888    3696.7845    15539.108    4957.0412    171.85967   -96126.663    8732.6193   -87394.044    349.47069    1663.3472    97473.027   -119284.57   -85029.523    55.370198 
  161000   -1153.8717    3668.2629    15428.474    4917.4846    163.71605   -96253.093    8722.3769   -87530.716     349.0608    4302.3208    97734.555   -119277.16   -81398.368    54.587227 
  162000   -1224.9109    3641.3432    15471.889    4945.5145    169.85871   -96312.801    8713.4284   -87599.373    348.70269    2193.7133    97839.027    -119316.5   -84469.203    54.943029 
  163000   -1174.6147    3641.3504     15473.11     4881.207    178.06255   -96294.463    8815.1397   -87479.323    352.77307    3430.8563    97690.621   -119293.58   -82591.322    54.540648 
  164000   -1195.4519    3684.9468    15453.385    4896.3449    162.10529   -96282.038    8761.2788   -87520.759    350.61762      2416.06    97559.251   -119283.37   -84083.185    54.646559 
  165000   -1229.3357    3692.8761    15435.198    4874.2572    154.13015   -96324.274    8758.0121   -87566.262    350.48689     2558.043     98352.24    -119251.4    -83897.09    55.425321 
  166000   -1267.8344    3671.4935    15479.908    4942.9172    163.30291   -96295.235    8850.3385   -87444.896     354.1817    845.23182    97838.411   -119285.02   -86238.858    54.702641 
  167000   -1246.7839    3585.2185    15538.123    4935.1736    161.40175   -96306.517    8729.4933   -87577.024    349.34559    2917.7527     97487.57   -119279.65   -83428.691    53.977654 
  168000   -1244.3768    3603.2439    15501.587    4953.6775    178.01719   -96303.549    8824.4564   -87479.093    353.14592    1989.5985    98132.322    -119295.7   -84631.661    53.750222 
  169000   -1218.5073    3578.3016    15366.168    4908.4978    162.16456   -96447.501    8703.4871   -87744.014    348.30485    1738.8913    97994.156   -119244.13   -85258.888    55.121411 
  170000   -1196.3127    3786.6704    15381.669    4810.9352    153.96109   -96325.413     8641.148   -87684.265     345.8101    1672.4469     98144.08   -119262.34    -85290.44    54.457276 
  171000   -1265.6595    3667.9086    15424.448    4896.9585    169.15907   -96336.905    8852.1931   -87484.712    354.25591     1264.086    98156.627   -119229.72   -85675.156    54.261759 
  172000   -1213.0829    3682.6525    15400.665    4924.1953    186.90326   -96261.602    8710.2011   -87551.401    348.57354    1693.6309    98066.683   -119242.94   -85129.167    54.397198 
  173000   -1173.4472    3651.8801    15409.985    4865.5091    180.66845   -96347.544    8801.3564   -87546.187    352.22148    2040.6659    97856.066   -119282.14   -84633.891    54.956774 
  174000   -1241.3605    3740.2893    15485.937    4887.9087    183.89709   -96210.877    8669.2616   -87541.615    346.93518    1576.9666     98474.72   -119267.55    -85276.85    54.932212 
  175000   -1239.2758    3653.4152    15483.101    4922.8927    179.22002   -96256.145    8843.0619   -87413.083    353.89049    2243.0798     97796.45    -119255.5   -84213.866    53.793036 
  176000   -1199.6424    3647.0438    15531.648    4871.9211    168.18629   -96261.233    8711.3267   -87549.906    348.61858    1383.4349    98100.363   -119280.39   -85570.635    54.368714 
  177000    -1182.636    3686.8305    15504.028    4878.1489    177.12077   -96263.173    8683.8128    -87579.36     347.5175    2767.5763    97683.741   -119326.66   -83636.623    55.031367 
  178000   -1160.0471    3699.9274    15467.239     4807.856    175.42398   -96284.512    8757.7055   -87526.806    350.47462     1265.705    99002.114   -119274.91   -85699.325    54.843263 
  179000   -1308.3453    3605.2606    15464.879    4915.4461    161.06518   -96445.058     8593.017   -87852.041    343.88395    479.55607    97890.413   -119283.36   -87167.412     54.48518 
  180000   -1193.9449    3792.6313     15451.45    4897.9814    159.01738   -96174.973    8773.4136    -87401.56    351.10324    1323.5037    97949.211   -119282.11   -85510.949    54.723386 
  181000   -1227.1303    3649.0892    15536.634     4882.021    183.17401   -96227.161    8678.0529   -87549.108      347.287    2361.8722    97649.432   -119250.95   -84185.526    54.023226 
  182000   -1205.7409    3728.4996     15393.32    4952.7522    145.79597    -96223.26    8789.4618   -87433.798    351.74547    2574.1382    98179.201   -119237.89   -83748.037    55.114751 
  183000   -1253.7897    3702.8044    15450.214    4928.4956    174.02506   -96284.928    8713.1787   -87571.749     348.6927    1761.1008    97344.982   -119286.68   -85071.555    54.237777 
  184000   -1232.4231    3648.1562    15470.642    4961.2816    167.30242   -96302.069    8661.3908   -87640.678     346.6202     2584.999    97080.541   -119317.03   -83980.785    54.609614 
  185000   -1227.0721    3695.1608    15392.343     4929.908    172.63688    -96306.51     8991.798   -87314.712    359.84276    1941.6659     98449.46   -119269.49   -84526.899    54.900579 
  186000   -1217.1943    3664.1148    15461.242    4902.4333    157.46997   -96279.428    8679.1466   -87600.281    347.33077     2319.101    97634.632   -119247.49   -84298.111    54.852532 
  187000   -1229.4859     3670.595    15467.038    4865.0931    174.21303   -96258.015    8815.0004   -87443.015     352.7675    2803.6252     97065.33   -119205.47   -83474.208    54.721664 
  188000   -1263.8629    3635.3188    15521.655    4929.1708    181.20339   -96233.642    8743.6136   -87490.029    349.91067    1169.5905    98395.691   -119237.13   -85811.666    54.881823 
  189000   -1231.1633    3663.8147     15452.61    4850.6462    153.18322   -96393.879    8932.0769   -87461.802    357.45279     2720.176    98147.371   -119282.97     -83568.2    54.505483 
  190000   -1225.2139    3798.6222    15417.272    4899.5776    154.32293   -96229.633    8683.0895   -87546.543    347.48856    986.36853     97889.46   -119274.21   -86138.387    53.944913 
  191000   -1265.9745    3609.8352    15501.233    4872.9718    151.53115   -96339.858    8705.9605   -87633.898    348.40383    2760.3579    97622.704   -119209.45   -83703.902    54.115324 
  192000   -1208.2241    3709.0495    15430.487    4911.1787     177.4501   -96254.739    8797.8974   -87456.841    352.08305    477.68656    97927.474   -119274.68   -86774.623    53.690949 
  193000   -1277.8748    3677.1862    15431.751    4895.4447    186.61599   -96295.138    8865.4793   -87429.659    354.78761    2977.4436    98010.808   -119208.26    -83173.74    52.314613 
  194000   -1231.2706    3680.8137    15402.204    4884.3328    173.87166   -96310.661    8758.1824   -87552.479     350.4937    2722.7512    97694.489   -119220.61   -83673.174    53.978205 
  195000   -1159.9694    3710.8951    15482.076    4882.1929    146.62378   -96176.031    8788.3422   -87387.689    351.70067    2828.6442    97610.066   -119237.85   -83360.993    55.114359 
  196000   -1276.8086    3627.8296    15495.343    4931.1909    153.08422   -96347.478    8753.6209   -87593.857    350.31115     1977.059    96670.459   -119278.12   -84806.521     54.78384 
  197000    -1233.352    3662.5808    15505.664    4739.3213    155.99105   -96377.596    8682.2566    -87695.34    347.45523    1406.5713    97999.934    -119207.8   -85685.028    53.906196 
  198000   -1285.3981    3760.0631    15544.704    4875.3775     170.4874   -96213.466    8828.6156    -87384.85    353.31237    1386.9907    97801.446    -119278.7   -85406.539    54.436072 
  199000   -1305.7086     3645.016    15478.816    4850.0236    182.02924   -96403.287    8638.6937   -87764.593    345.71188    919.55412    98138.456   -119253.46   -86448.482    55.446185 
  200000   -1310.7038    3737.4898    15460.587    4923.0381    165.72772   -96268.641    8715.3428   -87553.298     348.7793    2365.6686    97518.605   -119244.78   -84188.823    54.571873 
  201000   -1294.8601     3661.883    15513.419    4896.4102    155.81295   -96313.858    8887.2701   -87426.588    355.65966    1199.3795    96738.833   -119246.52    -85734.46    54.603996 
  202000   -1233.1924    3656.9936    15442.387    4881.5223    173.59319   -96358.966    8704.8238   -87654.142    348.35834    1912.7365    97682.757   -119280.27   -84929.252    53.852999 
  203000   -1253.5177    3740.9536    15392.894    4974.7521     172.4458   -96278.524    8752.3647   -87526.159    350.26088    2747.7677    97277.665   -119306.05   -83627.915    54.360018 
  204000   -1323.3729    3638.5384    15441.286    5020.5574    158.80342    -96303.29    8839.8791    -87463.41    353.76312    1556.8883    96927.635    -119239.1   -85262.609     53.67236 
  205000   -1271.6409    3707.3427    15510.024    4879.6264    161.65578   -96320.347    8697.6757   -87622.671    348.07229    2233.0044     97472.74   -119307.35   -84448.366     54.91692 
  206000   -1253.3477    3748.7586    15453.334    4969.1968    158.91489   -96198.613    8842.0101   -87356.603     353.8484    1614.0247    97072.814   -119275.47   -85071.616     54.53972 
  207000   -1231.6745    3608.0741    15482.025    4849.6831    177.81572   -96360.066    8746.4907   -87613.576    350.02581    2805.3206    97240.978   -119245.99   -83635.182    54.960912 
  208000   -1227.7678    3728.5195    15532.397    4915.2672    191.09821    -96116.86    8850.1288   -87266.732     354.1733    2824.6981    97101.302   -119256.37   -83266.612    53.911071 
  209000   -1301.6267    3793.1201    15456.455    4877.1099    168.84779   -96278.759    8672.0426   -87606.717    347.04647    1389.2737    96307.821   -119272.67   -85655.411     54.01535 
  210000   -1233.5614    3685.5964    15377.991    4902.7696    170.32977    -96324.84    8739.4936   -87585.346    349.74579    2547.3842    96454.124   -119227.96    -84001.98    52.830578 
  211000    -1305.354     3772.791    15566.402    5009.4607    147.76792   -96095.129    8730.8092    -87364.32    349.39825    1201.8307    96309.512    -119286.2   -85676.258    54.181183 
  212000   -1303.0609    3593.5167    15607.492    4855.5329    174.21782   -96343.089    8765.3208   -87577.769    350.77937    2815.3022    96120.185   -119270.79   -83631.238    54.628465 
  213000   -1252.2088     3607.054    15442.149    4916.3365    182.99454   -96415.253     8798.287   -87616.966    352.09865    1525.7294    96643.974   -119311.58   -85466.522    53.964246 
  214000   -1305.3919    3775.8966     15430.34    4955.7187    192.04108   -96203.792    8778.6162   -87425.176    351.31144    1897.2796    97118.578    -119252.4   -84737.917    54.898943 
  215000   -1287.0881    3623.4473    15475.403    4874.8331    178.36395   -96420.583    8754.4234   -87666.159    350.34327    1984.0736    96748.611   -119285.54   -84866.672    54.351506 
  216000   -1332.7245    3634.1917    15574.451    4945.0627    174.02222   -96260.246    8691.9116   -87568.334    347.84161    1429.1057    96494.271   -119255.25   -85557.197    54.015557 
  217000   -1269.6981    3653.6476    15379.793    4955.9718    157.74227   -96349.924     8743.739   -87606.185    349.91569    2833.0035    96777.142   -119227.38   -83607.697    54.623792 
  218000   -1279.4524    3611.5778    15353.042     4948.043     186.5055    -96452.17    8657.2242   -87794.946    346.45345    1997.4208    96468.861   -119271.89   -84984.776    52.527461 
  219000   -1244.4511    3648.6103    15481.582    4925.7276    152.88478   -96326.406    8843.0568    -87483.35    353.89029    2429.3519    96204.295   -119290.76   -84074.869    53.418821 
  220000   -1250.6818    3738.5366    15404.656    4833.5836    158.70516   -96361.885    8804.2022   -87557.683    352.33537    2840.9575     96497.25   -119246.68   -83559.565    54.910627 
  221000    -1284.711    3601.4091    15429.595    4951.0652    175.16081   -96358.596    8678.7623   -87679.834    347.31539    3016.8475    96665.655   -119231.11   -83426.775    54.629625 
  222000   -1277.0679    3683.3355    15425.978    4886.2827    162.27902   -96374.003    8750.2565   -87623.746    350.17652    1994.8205    97063.291   -119254.81   -84799.941    54.035919 
  223000   -1242.3948    3750.1395    15539.764    4919.8209    187.91886   -96100.924    8749.1126   -87351.812    350.13074    1397.0901    96200.626   -119256.17   -85391.712    53.999033 
  224000    -1299.822    3656.0016    15415.373    4919.3005    177.45287   -96443.029    8830.3837   -87612.645    353.38313     1744.066    96356.888   -119311.33   -85161.768    55.318822 
  225000   -1213.0639    3651.4353    15526.587    4820.4279    151.25788   -96321.206    8878.0705   -87443.136     355.2915    1939.8139    96486.497   -119257.85   -84713.514    54.343641 
  226000   -1277.0049    3645.9496    15427.869    4885.4577    170.64904    -96383.29    8686.1037   -87697.186    347.60918    1982.8335    95815.128   -119236.21   -84926.443    55.194281 
  227000   -1225.3742    3569.5188    15375.743    4906.0186    177.75753   -96471.436    8750.2289   -87721.207    350.17541    3592.1932    96671.985    -119275.1   -82656.711    54.780641 
  228000    -1279.435    3731.4955    15555.561    4906.9328     154.2784   -96201.215    8804.8295   -87396.385    352.36047    2377.0655    96666.027   -119270.05   -84045.258     53.60105 
  229000   -1270.3518     3679.055    15437.973    4899.8058    173.52565   -96359.217    8762.5956   -87596.621    350.67031     2367.774    97552.388   -119279.22   -84227.985    54.837634 
  230000   -1221.6495    3667.3376    15461.698     4931.728    173.80687   -96251.159    8718.3973   -87532.761    348.90154    2616.0484     97042.51   -119264.08   -83830.358    54.723359 
  231000   -1225.6577    3691.3426     15471.67    4952.6389    160.48087   -96257.641     8844.472   -87413.169    353.94692       1441.8    96810.799   -119308.11   -85377.511     54.72332 
  232000   -1288.8582    3653.3373    15438.308     4985.346    177.92591   -96282.309    8677.8081   -87604.501     347.2772    2851.2519    96712.163   -119248.37   -83582.959    54.327678 
  233000   -1237.4221    3623.8038    15456.566    4961.2467    171.87982   -96291.972    8707.0695   -87584.902    348.44821    2305.4787    96786.356   -119268.05   -84330.651    54.645334 
  234000   -1262.7762    3647.8056    15491.682     4917.405     169.5183   -96309.051    8785.9646   -87523.087    351.60552    2882.2322    97206.959   -119272.69    -83437.05    53.341338 
  235000   -1261.4906    3716.5604    15522.471    4896.6189     145.0272    -96271.93    8695.0314   -87576.899    347.96646    2711.5043    96969.149   -119291.12   -83742.301    54.788306 
  236000    -1322.982    3690.2163     15486.66    4977.5701    180.38979   -96241.894     8751.524    -87490.37    350.22724    1932.6537    96160.776   -119253.75   -84780.005    53.892714 
  237000   -1315.8213      3612.44    15400.262    4991.7009    171.26624   -96427.108    8695.3768   -87731.732    347.98028    1646.9536    96713.407   -119286.96    -85408.76    54.312163 
  238000   -1272.4052    3590.7831      15394.6    4908.0973    164.16168   -96471.172     8783.042    -87688.13    351.48856    2878.5264    96790.318   -119256.41   -83624.838    54.730197 
  239000   -1249.9447    3713.9899    15473.125    4906.8793    174.04778   -96269.091    8812.1837   -87456.907    352.65478    3060.8558    96909.623   -119287.19   -83130.916    54.894133 
  240000   -1270.8422    3664.2548    15397.002    4933.6031    173.56401   -96343.575    8763.8898   -87579.685     350.7221    1389.7501     96995.44   -119241.16   -85613.774    55.233974 
  241000   -1232.3411    3655.0377    15454.339     4925.832    158.43665   -96316.993    8776.1795   -87540.813    351.21393    1416.5369    97064.299    -119278.3   -85535.587    53.765797 
  242000   -1267.5328    3740.6445    15379.484    5001.7066    168.70759   -96268.347    8746.3274   -87522.019    350.01928    2132.7182    96421.994   -119291.36   -84522.957    54.645161 
  243000   -1270.5961      3632.49     15455.06    4889.0213    182.57608   -96360.143    8771.1264   -87589.017    351.01171    2065.0363    96572.261   -119248.69   -84680.604    53.741453 
  244000     -1297.29    3619.5644    15519.493       4943.1    174.87537   -96318.065    8886.6001   -87431.465    355.63285     2287.789    96863.787   -119277.81   -84199.599    54.285727 
  245000   -1246.1862    3601.4196    15460.549    4905.3416    162.89355   -96375.924    8686.8806   -87689.044    347.64028    2308.9012    96456.625   -119259.94   -84441.064    53.942451 
  246000   -1230.9841    3649.4699    15459.276    4917.4482    170.57366   -96340.433    8755.0878   -87585.345    350.36986     1953.832    96929.339   -119306.22   -84823.379    54.693822 
  247000   -1263.6763     3641.838    15475.117    4939.5312    169.56616   -96347.097    8741.0184   -87606.078    349.80681    2855.3243    96210.177   -119309.47   -83599.697    54.445701 
  248000   -1239.2345    3722.9365    15484.443    4905.7827     174.6868   -96222.174     8749.667   -87472.507    350.15292    1826.2524    97257.281   -119270.79   -84882.155    54.379183 
  249000   -1300.8187    3659.8662    15405.012       4925.8    160.13793   -96369.215    8716.7243   -87652.491    348.83459    2699.8617    96500.186   -119219.21   -83852.824    54.248157 
  250000   -1273.9108    3701.2841    15505.017    4874.7794    164.69612   -96262.816    8836.7825   -87426.033     353.6392     2007.304    96745.243   -119234.68   -84593.868    54.990927 
  251000   -1328.8515    3740.4629    15425.363    4922.2088    183.30216   -96308.408    8656.1969   -87652.211    346.41234     1743.775    96838.618   -119250.89   -85189.491    54.371496 
  252000   -1297.6895    3641.8463    15491.043    4903.5448     193.3087    -96317.29    8747.4589   -87569.831    350.06456    1750.2965    96624.468   -119249.34   -85103.368    54.161595 
  253000   -1300.3999    3614.1459    15358.781     4954.598    164.62598   -96471.847    8714.1019   -87757.745    348.72964    1915.5656    96776.763    -119263.6   -85054.135    54.765421 
  254000   -1270.4996    3753.4837    15478.146    4860.9648    173.74678   -96255.759    8680.1731   -87575.586    347.37185    1599.2413    96498.362    -119251.6   -85324.927    55.218489 
  255000   -1316.8114    3676.2026    15484.845     4919.638    158.54967   -96309.766    8899.3466   -87410.419    356.14295    1489.3474    96077.324   -119232.19   -85323.562    53.824821 
  256000   -1371.0242    3679.5127    15527.072    4904.0805    163.54263   -96353.724    8802.9418   -87550.782    352.28493    642.88964    96159.867   -119256.91   -86649.198     53.85748 
  257000   -1338.8957    3690.0671    15492.765    4949.9985    178.13451   -96326.613    8665.4391   -87661.174    346.78221    1208.0794    96937.096   -119298.68   -85953.278    53.705032 
  258000   -1279.8068    3636.9878    15445.151    4933.3963    169.24329   -96345.875    8817.1828   -87528.692    352.85484    2022.2705    96307.098   -119250.85   -84688.332    54.372903 
  259000   -1282.7525    3724.4114    15459.262    4953.1225    172.61313   -96264.919    8826.1552   -87438.764     353.2139    1725.3935    96686.143   -119291.58   -85005.842    53.587871 
  260000   -1206.8556    3618.2235    15512.361    4886.5687    162.10837   -96280.701    8680.5961   -87600.105    347.38878    1674.9307    96151.145   -119253.11   -85251.407    53.379145 
  261000   -1243.1471    3636.9361    15440.844    4881.4567    165.55292   -96343.541    8745.0254   -87598.516    349.96717     2617.877     96798.11   -119225.18   -83902.856    54.601963 
  262000   -1223.7775    3731.8989    15432.449    4893.6861    182.85155   -96254.834    8714.1187   -87540.716    348.73032    2261.2874    96618.235   -119271.94   -84354.386    54.058005 
  263000   -1309.2097    3729.9454    15370.075    4973.4064    159.85086     -96365.1    8640.7666   -87724.333    345.79484    2068.4865    96261.042   -119289.17    -84820.45    54.515993 
  264000   -1241.8898    3662.9817    15398.063    4919.3426    176.23495   -96329.828    8682.3868   -87647.441    347.46044    1775.2941    97219.212   -119244.56   -85130.354    53.932094 
  265000   -1299.3148    3667.2305    15534.361     4930.031    166.68898   -96277.999    8834.7736   -87443.225    353.55881    1523.4671    96766.787      -119277   -85293.241    53.783106 
  266000   -1300.7953    3708.7303    15434.578    4839.2035    170.33133   -96379.244    8780.2708   -87598.973    351.37766    3128.0412    96572.719   -119231.29   -83193.396    54.992557 
  267000   -1242.6527    3615.3479     15429.12    4826.4098    179.27564   -96430.024    8738.1919   -87691.832     349.6937    2317.0604     96654.95   -119237.52   -84425.673    53.379946 
  268000   -1230.5676    3736.8859    15419.702     4864.159    170.88371   -96284.049    8708.9212   -87575.128    348.52232    4028.5157     97034.43   -119245.11   -81874.183    54.523995 
  269000   -1270.1223    3649.6481    15473.895    4849.8787    150.08214   -96375.649    8666.1469   -87709.502    346.81053    1151.5993    96382.984   -119229.03    -86090.76    54.683861 
  270000   -1283.2913     3531.183    15518.799    4911.0315    168.00114   -96375.181     8829.104   -87546.077    353.33191    2056.5952    96585.876    -119220.9   -84649.145    54.335568 
  271000   -1280.3425    3541.0436     15477.61    4870.8203    172.81213     -96441.6    8613.3904    -87828.21    344.69927    3184.5372    96268.274   -119223.54   -83357.202    53.895299 
  272000   -1295.2838    3683.4352    15509.275    4818.1426    173.40418   -96397.212    8698.2162   -87698.996    348.09391     2223.656    96560.214   -119286.19   -84567.573    54.039802 
  273000   -1297.4703    3640.8372    15543.525    4937.4015    162.35119   -96258.126    8745.4595   -87512.667    349.98455     2391.712    96245.309   -119244.77   -84155.566    53.852691 
  274000   -1308.0838    3625.7575    15515.461     4875.077    156.70848   -96398.684     8743.219   -87655.465    349.89488    1475.4793    95768.626    -119263.6   -85594.682    54.123479 
  275000   -1255.9538    3699.3284    15392.464    4905.8466    177.71524   -96362.532    8717.3336   -87645.198    348.85897    1412.2336    96723.367   -119281.93   -85653.086    54.074836 
  276000   -1296.2247    3610.7388    15467.359    4936.9398    166.39357   -96346.315    8827.5734   -87518.741    353.27066    2331.5964    96019.777   -119231.52   -84253.691     54.52753 
  277000   -1273.3725    3590.1474    15376.395    4962.0179    180.08274    -96429.92    8713.9358   -87715.984      348.723    2830.7886    96557.866   -119265.19   -83729.675    53.645677 
  278000   -1246.9522    3686.1793    15520.867    4923.4532    161.86273   -96254.455    8683.7653    -87570.69     347.5156    1522.9809    96076.848   -119299.87   -85436.716    54.927747 
  279000   -1278.0642    3698.2562    15441.834     4906.873    167.34372   -96333.097    8868.7281   -87464.369    354.91763    2851.1374    96562.921   -119269.34   -83449.194    54.553957 
  280000   -1271.3892    3697.9868    15527.987     4964.076    151.25634   -96222.573    8785.4138   -87437.159    351.58348    3019.9397    96461.794   -119292.49   -83188.719    54.091295 
  281000   -1271.2679    3695.5183    15508.547    4913.6939    165.95764   -96291.543    8779.0185   -87512.525    351.32754    2591.4702    96789.016   -119303.99   -83854.487    54.886432 
  282000   -1226.6177    3629.2472    15468.361    4965.0773    150.65343   -96233.592    8807.8305   -87425.761    352.48057    2260.1863    96758.812   -119220.31   -84236.349    55.249269 
  283000   -1272.8939     3652.549    15480.091    4894.9515    159.78488     -96332.3    8695.2953   -87637.004    347.97702    2405.2924    96254.825   -119246.78   -84260.508    54.631616 
  284000    -1311.909    3670.7211    15424.602    4960.2472    165.13663   -96393.149    8825.1886    -87567.96    353.17522    2100.2258    97147.142   -119301.95   -84592.378    54.942936 
  285000   -1331.9261    3694.7039    15473.745    4919.6802     177.3729   -96308.372    8824.1439   -87484.228    353.13341    2352.0216    96127.374   -119241.95   -84186.884    53.509131 
  286000   -1292.9117    3632.8219    15442.902    4977.7346    154.94129   -96400.912    8706.8163   -87694.095    348.43808    1805.6114    96303.262    -119316.4   -85158.142    54.511096 
  287000   -1276.1307    3620.8176    15355.449    4934.6814    157.98806   -96463.345    8717.6441   -87745.701     348.8714    705.29149    96727.844   -119256.15   -86750.763    54.596224 
  288000   -1236.9372    3679.3465    15526.589    4942.8174    176.06079   -96224.677    8754.7191   -87469.958     350.3551    2398.6691    96161.535   -119312.55   -84106.022    54.209121 
  289000   -1263.6986    3608.4906    15452.649    4874.2676    169.43307   -96436.094    8695.9524   -87740.142    348.00332    2231.8138     96553.49   -119277.24    -84597.45    54.939981 
  290000   -1228.9675    3622.4443    15392.705    4886.8028    174.33943   -96399.374    8793.1694   -87606.204    351.89385    1806.5203     96886.93    -119246.7   -85053.598    54.506348 
  291000   -1325.4349    3659.5098      15555.8    4957.3345    155.57318   -96261.698    8762.4107   -87499.287    350.66291    2676.9419    96181.984   -119264.48   -83744.299    55.109791 
  292000   -1300.2115    3649.6538    15567.199    4895.9614    166.23229    -96284.48    8660.9335   -87623.547     346.6019    1293.3801    96506.829   -119263.32   -85803.175    53.650602 
  293000   -1289.1656    3658.3988    15558.414    4966.6234    172.54329   -96185.714    8732.5343    -87453.18    349.46729     1893.271    96215.504   -119252.53   -84796.534    54.494261 
  294000   -1251.2345    3658.1797    15536.216    4885.5008      167.506   -96281.424    8684.6468   -87596.777    347.55088    1594.6743    96317.706   -119277.59   -85356.746    53.848577 
  295000   -1363.2163    3667.8822    15420.594    4942.7002    174.43082   -96411.143     8662.139   -87749.004    346.65014    1889.4723    96024.762   -119253.53   -85102.944    54.259233 
  296000   -1301.6906    3568.0019    15457.938       4858.5     165.5892   -96471.527    8748.0509   -87723.476    350.08825    2167.4905    96240.603   -119219.87    -84681.25     53.22529 
  297000   -1325.8328     3579.501    15585.142    4926.4005    161.85414   -96332.982    8734.6531   -87598.329    349.55208    1477.5066    96196.746   -119260.05   -85525.489    53.933587 
  298000   -1268.5358    3620.1076    15412.782    4948.2321    162.98507   -96394.252    8639.1302   -87755.122    345.72935    3073.5493    96326.813   -119269.82   -83437.315    54.517411 
  299000   -1284.7884    3545.5375    15487.238    4966.1449    178.73827   -96348.203     8738.188   -87610.015    349.69355    2819.3035    96248.744   -119241.07   -83652.589    54.421037 
  300000   -1291.5544    3661.4081     15497.86     4896.551    163.59306   -96331.664    8684.8902   -87646.773    347.56062    2091.3733    96355.403   -119259.52   -84707.882    54.959214 
  301000    -1283.895    3736.3525    15346.337    4858.1017    170.24083   -96432.685    8563.6362   -87869.049    342.70816    1482.4559    96110.001   -119259.82   -85791.141    53.484585 
  302000    -1313.667    3671.0982     15409.69    4904.9046    163.43913   -96411.777    8638.5001   -87773.277    345.70413    1884.4839    96580.514   -119247.24   -85118.929    52.796724 
  303000   -1248.2855    3646.8462    15420.237    4871.7821    158.13635   -96357.562    8771.7953   -87585.767    351.03847    2167.9968    96630.745   -119206.28   -84530.495    54.343842 
  304000   -1291.9385    3659.3977    15391.518    4948.5712    150.00657   -96368.146    8948.0735   -87420.073    358.09295    3602.5844     96278.66    -119225.7   -82361.592    53.771321 
  305000   -1282.8761    3706.3606    15367.096    4926.8159    165.62168    -96380.02    8765.3714   -87614.649     350.7814    2134.8661    95899.091   -119263.04   -84628.847    54.210773 
  306000   -1293.1438    3771.0895    15374.612    4899.6612    157.32994   -96352.826    8677.0368   -87675.789    347.24633    2082.2112      97333.8   -119262.37   -84720.062    53.826568 
  307000   -1270.9288    3656.6507    15456.777    4824.5742    172.68248    -96480.77     8652.739   -87828.031    346.27396    961.80502    97267.572   -119320.53   -86463.664    54.197011 
  308000   -1337.9403    3638.9784      15435.1    4969.8898    177.32703   -96334.858    8824.1032   -87510.755    353.13179    2138.6725    95871.115   -119218.21   -84520.502    54.168176 
  309000   -1302.3933    3733.7466    15422.689    4900.5906    169.33787   -96329.511    8885.9964   -87443.515    355.60869    1569.1836    96401.395   -119253.48   -85237.375    53.594646 
  310000   -1335.7494    3578.6897    15507.664    4921.1202    169.39056     -96400.6    8754.0355   -87646.565    350.32775    1836.4206    96379.305   -119241.72   -85065.304    53.855641 
  311000   -1275.7896     3612.466    15479.556    4923.0069    167.49033   -96420.937     8702.233   -87718.704    348.25466    2669.0694    96177.992   -119327.67   -83974.914    54.258689 
  312000   -1295.4948    3693.5781    15479.129    4928.8676    168.08078   -96334.666    8758.3201   -87576.346    350.49921    1676.5203    96335.846   -119308.83   -85220.903     54.25701 
  313000   -1285.9193    3679.8805    15468.167     4924.812    164.06394   -96309.334    8748.7393   -87560.594     350.1158    2690.8554    96892.934   -119260.34   -83758.189    53.687695 
  314000   -1347.4735     3661.419    15436.416    4912.1347    149.22012   -96439.159    8762.0158   -87677.143    350.64711    1204.5179    96136.804   -119250.87    -85988.34     54.66577 
  315000   -1336.9175    3573.8834    15424.874    4981.9526    172.36093   -96448.712    8739.4408   -87709.271    349.74368    1274.3072    95849.201   -119264.87   -85927.965     54.01647 
  316000   -1281.9935    3689.7132    15405.038     4978.064    167.59477   -96275.207    8666.9355   -87608.272    346.84209    2256.7123    96862.091   -119233.62   -84420.363    54.747339 
  317000   -1261.1396    3678.9367    15434.701    4883.0423      163.019   -96342.471    8638.3815    -87704.09    345.69939    1643.2972    96902.696   -119241.03   -85381.739     54.67401 
  318000    -1212.243    3575.7652    15448.333    4899.5275    165.75528   -96334.675    8816.2043    -87518.47    352.81568    3729.7527    96748.114   -119211.81   -82255.894    55.622791 
  319000   -1261.6366    3729.9181    15398.979     4911.098    155.28539     -96289.6    8552.0898    -87737.51    342.24608    1731.0214    96654.545   -119223.24   -85297.449    54.909018 
  320000   -1311.4077    3697.1781     15466.92    4941.0669    168.46431    -96291.72    8661.4908    -87630.23     346.6242    1485.1876    96409.602   -119253.94   -85542.004      55.4174 
  321000   -1266.1267    3637.4134    15448.499    4937.9543    176.88772   -96306.552    8595.5083   -87711.044    343.98365    1993.4732    96561.225   -119241.18   -84903.743    54.974596 
  322000   -1287.2574    3576.4154    15482.832     5035.418    169.21872    -96316.25    8845.9541   -87470.295    354.00624    3499.5711    95796.047   -119292.88    -82581.09     54.93118 
  323000   -1275.2537    3681.0434    15442.387    4892.7269    160.35565   -96381.571    8669.1157   -87712.456    346.92934    1093.1917    96983.411   -119282.83   -86166.241     54.91972 
  324000   -1284.1405    3753.2183    15312.745    4888.5481    165.10778   -96426.868    8648.0805   -87778.787    346.08753    1882.5962    96342.271   -119262.35    -85133.64    54.959314 
  325000   -1274.0482    3688.9105    15351.713    4924.1029    166.89275   -96391.199    8694.8249   -87696.374     347.9582    1166.1573    97293.259   -119248.77   -86041.687    54.759313 
  326000   -1286.2332    3699.1614    15482.259    4976.3957     158.5163   -96243.466    8635.5522   -87607.914    345.58616    2647.5177    96512.596   -119273.57   -83881.434    54.443116 
  327000   -1289.9173    3646.1666    15328.364    5018.8341    169.43117   -96374.057    8872.3096   -87501.747    355.06096    2005.6955    97052.259   -119246.93    -84662.87    55.424006 
  328000   -1305.2739     3644.835    15473.539    4955.5399    174.78366   -96349.706    8753.2651   -87596.441    350.29692    2343.8712    97060.017   -119293.13   -84278.642    54.560797 
  329000   -1307.1542    3698.4986    15422.193     4937.228    182.24271   -96296.054    8671.8002   -87624.254    347.03677      1880.81    96413.695   -119229.06   -84979.656    54.121436 
  330000   -1283.1693    3625.1344     15521.23    4935.3758    181.78518   -96336.283    8738.6098   -87597.674    349.71043    2557.7661    95968.111   -119316.64   -84017.833     54.45598 
  331000    -1247.946    3609.6398    15421.162    4928.7745    171.62629   -96340.196    8714.2898   -87625.906    348.73716    2395.5123     96891.25   -119223.45   -84240.905    54.357915 
  332000   -1273.5154    3658.7516    15460.366    4960.7169    158.95045   -96332.729    8795.5938   -87537.135    351.99087    2566.6804    96326.503      -119298   -83931.403    54.793521 
  333000   -1297.7341    3677.7736    15398.903    4872.7971    169.56309   -96453.957    8691.5629   -87762.394    347.82765    2977.3765    96624.674   -119275.26   -83566.759    55.051494 
  334000   -1331.8111    3639.0714    15459.023    4959.7557    173.36079   -96325.414    8676.3978   -87649.017    347.22076    1283.5695    96840.795   -119224.81   -85836.201    55.289157 
  335000   -1287.5161    3643.0647    15460.093    4966.0054    172.14883   -96262.714    8802.6873   -87460.027    352.27474    1981.8062    95901.002   -119216.51   -84688.237    55.049286 
  336000   -1210.8668    3714.2939    15404.006     4900.768    178.93793   -96229.257     8709.277    -87519.98    348.53656    3462.2975    96461.051    -119216.4    -82649.27    54.461296 
  337000   -1287.7799     3690.923    15450.726    4978.7603    159.50325   -96270.129    8756.8483    -87513.28    350.44031    1182.1459    96436.692   -119262.26   -85850.675    55.089277 
  338000   -1328.1945    3643.1344    15458.927    4928.4004    162.63874   -96402.177    8774.5692   -87627.607    351.14949    2743.4439    95796.001   -119267.08   -83794.779    54.306173 
  339000    -1292.392    3645.6268    15472.421    4930.6577    153.19886   -96298.832    8596.3709   -87702.461    344.01817    995.42074    96512.415   -119208.34   -86301.372    54.887116 
  340000   -1285.0256    3747.7072    15477.519     4947.198    158.07594   -96231.513    8657.3531    -87574.16    346.45861    1676.2168    96176.795   -119276.99   -85223.031    54.629319 
  341000   -1264.3773    3742.2863    15404.292    4928.5536    180.36813   -96297.842    8845.5231   -87452.319    353.98899    2147.8449    96669.719   -119288.97   -84424.226    54.194823 
  342000   -1402.6137     3723.514    15413.027    4975.0324      167.543   -96408.299    8676.5789    -87731.72    347.22801    2718.2351    95529.486    -119284.8   -83944.676    54.896736 
  343000   -1316.8697     3708.839    15564.586    4869.2359    160.95478   -96277.167    8753.2457   -87523.921    350.29614    949.97257    96922.806   -119263.91   -86181.116    55.220997 
  344000   -1335.4577    3602.8675    15467.182    4998.6089    162.72223   -96396.159    8901.6794   -87494.479    356.23631    1923.0497    95997.234   -119292.08   -84802.169    54.591586 
  345000    -1309.352    3737.5766     15514.02    4912.1678    166.52415    -96275.62    8667.6312   -87607.989    346.86993    1469.6828      96464.9   -119296.56   -85540.378    54.349764 
  346000   -1303.6181    3695.2659    15451.446    4959.1259    158.05179   -96334.998    8722.4067   -87612.591    349.06199    2055.6431    96563.508   -119295.27    -84717.67    54.427953 
  347000   -1330.9937    3684.5391    15472.792    4905.7026     172.2677   -96372.192    8760.5054   -87611.687    350.58667    1448.8118    96542.336    -119276.5   -85571.802    54.095746 
  348000   -1367.5211    3716.6286    15405.006    4926.2245    151.14003   -96431.716    8692.6006   -87739.115    347.86918    1657.1539    96867.227   -119263.19   -85398.039    53.924643 
  349000   -1318.2622     3624.326    15355.237    4959.9859    164.26989   -96451.478    8780.3734   -87671.104    351.38176    1386.3182    96623.782   -119237.03   -85717.562    53.501992 
  350000   -1270.2871    3759.9146    15446.031    4859.2119    175.17622   -96343.263    8754.2085   -87589.054    350.33467    2691.3225    96046.518   -119313.31   -83819.212    55.068341 
  351000   -1253.0594    3725.4016    15439.319    4938.9175    160.28084   -96299.644    8644.3664   -87655.278     345.9389    2444.2293    95757.366    -119310.5   -84241.855    55.251849 
  352000   -1325.8624     3660.596    15453.298    5020.6593    168.22699   -96305.872    8648.2925   -87657.579    346.09602     2401.961    96482.434   -119282.79   -84277.786    54.863221 
  353000   -1288.2606    3658.4939    15475.085    4919.9323    175.46492    -96296.13    8794.7245   -87501.405    351.95608    1004.7742    96687.023   -119236.84   -86084.592    53.878083 
  354000   -1270.1604    3674.2795    15520.336      4903.84    187.73271   -96187.313    8697.9689   -87489.344    348.08402    1758.4653    96831.818   -119203.34   -85006.052    54.868161 
  355000   -1324.7119    3682.9715    15374.588    4859.3527    163.46222   -96529.963    8856.5865   -87673.377    354.43173    2444.3072    96930.394   -119285.63    -84218.03     55.20171 
  356000   -1275.8108    3692.5519    15415.889    4912.8245    190.04974   -96369.284    8787.1432   -87582.141    351.65268    1446.8559    96527.209   -119304.79   -85545.329    54.981025 
  357000   -1344.4145    3684.3026    15433.075    4948.5978    178.35244   -96361.278    8718.9029   -87642.376    348.92178    1892.4224    96504.498   -119261.19   -84978.944    54.887215 
  358000    -1280.101    3622.7984    15420.324    4894.5134    178.06148   -96409.402    8650.0383   -87759.363    346.16588    2175.0516    96060.847      -119245   -84712.227    54.688392 
  359000   -1258.8205    3689.5339    15384.858    4903.5595    160.36879   -96337.904    8628.2211   -87709.683    345.29278    2037.1478    97140.677    -119217.4   -84823.662    54.095752 
  360000   -1218.7949    3665.6743    15448.175    4848.2244    164.73004   -96355.199    8772.4979   -87582.701    351.06659    3669.2689    96453.768   -119263.21   -82421.216    54.703499 
  361000    -1270.428      3682.49    15477.115    4921.0548     192.7339   -96247.323    8864.6184   -87382.704    354.75316    2108.9148    96242.853   -119250.29   -84422.624     54.51832 
  362000   -1325.0729     3679.951    15391.159    4963.3102    157.23513   -96383.883    8741.1007   -87642.783    349.81011    1082.2349    95981.606   -119250.47   -86127.877    54.374594 
  363000   -1323.5658    3597.9092    15454.695    4931.8457    149.43681    -96472.65    8796.8872   -87675.763    352.04263    2548.0531     96217.22   -119282.97    -84100.26    54.835164 
  364000   -1268.2841    3633.1324    15425.526    4878.7729    159.79273   -96428.406    8825.4455   -87602.961     353.1855    2215.3232    95851.738   -119257.35   -84506.162    54.723074 
  365000   -1284.4445    3662.8714    15360.375    4970.9081    144.13003   -96446.829    8731.6445   -87715.185    349.43168    2329.4003    96445.548   -119300.67   -84438.745    54.474501 
  366000   -1315.0121    3726.8291    15380.686    4984.6705    163.90696   -96340.385    8767.6982   -87572.687    350.87451    2252.8467    96190.999   -119281.47   -84412.288    55.106535 
  367000   -1381.5399    3591.5125    15392.085    4982.8771    169.62668   -96518.409     8586.164   -87932.245     343.6097    850.57109    96043.475   -119272.97   -86740.854    54.574012 
  368000   -1294.8384    3735.9568    15351.155    4961.5047     184.8515   -96362.621    8719.7836   -87642.838    348.95702    1911.9964    96688.455   -119301.25   -84946.728    54.319445 
  369000   -1309.1065    3677.7597    15346.139    4912.2131    159.03049   -96415.808    8676.1703   -87739.638    347.21166    812.84448    96432.341   -119201.84   -86596.481    53.830147 
  370000   -1313.6474    3609.6259    15504.299    4896.4968    164.39172   -96386.002    8876.2666   -87509.735    355.21931    1592.9453    96462.728   -119247.17   -85268.764    55.299959 
  371000   -1278.9379     3721.978    15331.848    4863.8957    168.54475   -96464.935     8843.476   -87621.459    353.90707    2382.0936    96274.039   -119272.26   -84276.862    55.132934 
  372000   -1277.3315    3672.5778    15426.563     4870.293    165.45268   -96386.174    8664.4154   -87721.759    346.74124    1838.5052    95821.991   -119243.73   -85152.511    54.320435 
  373000   -1312.2372    3591.2208     15367.38    4885.0279    160.86312   -96543.239    8901.6371   -87641.602    356.23462    1132.1305    96439.919   -119235.49   -86049.286    54.394404 
  374000   -1346.1918    3700.1184    15478.562    4932.1584    178.64101   -96319.614    8910.2082   -87409.405    356.57762    2492.8382    96151.008    -119262.9   -83913.789    54.732698 
  375000     -1289.72    3662.8668    15347.684    4882.3531     176.8281   -96493.593    8819.7727   -87673.821    352.95848    2752.3573    96264.796   -119273.61   -83809.722     55.32052 
  376000   -1351.6085    3721.0031    15405.331    4940.9923    162.66428   -96429.506    8758.7443   -87670.762    350.51619    3041.7071    96404.826   -119307.89   -83394.227    55.277141 
  377000   -1222.9594     3659.427    15568.096    4861.1383    180.39674   -96275.989    8676.4205   -87599.568    347.22167     2575.554    95684.129   -119322.09   -84005.499    55.118548 
  378000   -1313.7827    3608.8991    15477.946      4833.54    173.28551   -96456.419    8654.2455   -87802.173    346.33425    2038.6949    96053.943   -119236.31   -84946.271    53.884861 
  379000    -1296.737    3723.2899    15423.414    4874.4699    184.89603   -96385.776    8714.3228   -87671.453    348.73848    1434.6851    96632.237   -119295.11   -85649.577      54.9826 
  380000   -1342.0081    3660.2573    15515.759    4918.5036    177.88167   -96366.701    8737.7149   -87628.986    349.67461    2886.6985    95741.486   -119297.09   -83598.314    55.205092 
  381000   -1284.9527    3720.1408    15355.042    4918.5977    162.76536   -96402.048    8868.6446   -87533.403    354.91429    1663.4464     96343.45   -119273.64   -85196.144    54.141675 
  382000   -1372.8355    3694.0183    15444.878    4886.6462    165.39073    -96439.45    8708.7879   -87730.662    348.51698    349.42738    96254.691   -119257.55   -87240.144    54.606382 
  383000   -1337.3094    3716.8168    15472.223    4958.4677    167.20886   -96314.024    8727.4981   -87586.525    349.26575    2163.7023    95944.485   -119291.43   -84558.961    54.025353 
  384000   -1277.9859    3717.3708    15512.086    4826.5189    164.01936   -96315.947    8694.5488   -87621.399    347.94715    2215.5239      96563.7   -119257.96   -84501.315     54.95505 
  385000   -1330.6537    3562.3419    15495.901    4925.5753    157.56399    -96492.69    8796.8205   -87695.869    352.03996    3392.6989    95914.551   -119303.42    -82950.11    54.318945 
  386000   -1396.0828    3671.6353    15435.796    5001.0484    155.43497   -96394.109    8731.2064   -87662.903    349.41415    692.00036    95673.736   -119261.94   -86697.352    54.986679 
  387000   -1368.8092     3701.918    15394.595    4901.4635    172.68618   -96499.704    8849.3029   -87650.401    354.14025     1871.524    96346.042   -119301.56   -85020.708    54.181738 
  388000   -1333.2454     3628.788    15454.313    4954.2206    182.59251   -96375.259    8805.6951   -87569.564    352.39511    1799.3601    96893.774   -119261.93   -85026.895    55.058333 
  389000   -1288.4722    3670.4881    15441.905    4901.3571    177.42447   -96400.944    8625.6679   -87775.276     345.1906    2093.1399    96314.051   -119303.65   -84835.164    54.885034 
  390000   -1354.9828    3603.9215    15462.628    4950.2949    177.64583   -96424.345     8658.935    -87765.41    346.52192    962.16428     96287.45   -119263.85   -86414.288    54.233147 
  391000   -1311.8382    3607.4859    15357.307    4916.2786    168.65936   -96553.674    8817.2014   -87736.473    352.85558    3164.7772    96717.124   -119291.57   -83272.491    55.712597 
  392000   -1302.7975    3600.4225    15471.118    4927.1706    173.94216   -96416.566    8675.0729   -87741.493    347.16774    2682.6094    97037.184   -119286.42   -83945.097    55.187389 
  393000   -1253.3503    3649.2597    15469.966    4854.7859    177.45239   -96371.476    8744.1444   -87627.332    349.93192    1941.1743    96491.902   -119269.59   -84895.643     55.25601 
  394000   -1299.3652    3700.0271    15401.361    4897.0527     159.0468   -96394.227    8856.0322   -87538.195    354.40955    1903.2962    96911.681   -119252.35   -84848.157    55.792762 
  395000   -1298.3024    3686.6031    15464.079    4897.4051    167.44916   -96313.594    8695.8246    -87617.77     347.9982     2218.277    96400.488   -119230.83   -84499.089    54.816522 
  396000   -1318.4137    3632.6821    15446.839     4919.571    165.33256   -96420.099     8696.064   -87724.035    348.00779     1269.179    96166.761   -119266.11    -85944.02    54.649512 
  397000   -1358.4602    3832.4524    15502.548    5006.2616    183.17402   -96067.604      8708.59   -87359.014    348.50906    1545.1584    95727.459   -119233.58   -85201.839    55.250197 
  398000   -1272.1767    3663.2623    15458.398    4932.4087    164.42958   -96341.758    8726.8048   -87614.953      349.238    2413.6011    96018.819   -119288.08   -84235.101    54.491063 
  399000   -1308.7978    3688.4703    15412.559    4867.5353    180.60936   -96418.527    8575.8249   -87842.702    343.19594    2334.2759    96736.185    -119258.9    -84549.51    54.924832 
  400000   -1291.8368    3636.3147    15498.579    4929.3243    182.09132   -96335.376    8751.2399   -87584.136    350.21587    2895.8493    96576.743   -119289.85   -83505.411    54.278598 
  401000   -1395.6091    3725.6632    15435.642    4964.7118    158.03913   -96380.087    8608.9533   -87771.134     344.5217     1075.564     95978.03   -119268.53   -86265.622    53.813559 
  402000   -1285.2386    3622.7256    15512.686    4926.5028    182.26474   -96287.256    8802.7224   -87484.534    352.27615    1724.1685    96245.409    -119246.2   -85064.421    53.924693 
  403000   -1359.0881     3608.193    15420.609    4968.0237    181.13988   -96503.406     8837.617   -87665.789    353.67259    3456.1549    95689.366   -119322.28   -82842.617    53.822599 
  404000    -1419.523     3610.471    15433.624    5014.8175    182.99551   -96483.656    8747.7773   -87735.878     350.0773   -69.139911     95619.06   -119306.04   -87832.294    53.509787 
  405000   -1355.3124    3676.0802    15543.433     4979.023    182.31226   -96274.584    8761.5297   -87513.054    350.62766     1581.852    96261.585   -119300.12   -85292.329    55.174998 
  406000   -1324.5034    3696.1534     15390.52    4927.1191    166.98513   -96416.957    8709.9962   -87706.961    348.56534    1054.5156    96090.753   -119273.23   -86229.179     53.91541 
  407000   -1380.2091    3777.4644    15549.214    4951.1891    172.62788    -96267.29    8710.6379   -87556.652    348.59102    2990.5556    95302.149   -119337.58   -83400.126     54.13058 
  408000   -1317.9023    3632.4739    15480.066     4910.587    163.68731   -96417.486    8873.2768   -87544.209    355.09967    2694.7393    95889.387    -119286.4   -83775.756    54.262734 
  409000    -1313.137    3713.3244    15378.508    4874.1943    164.20519   -96444.468    8728.2615   -87716.206     349.2963    1440.2857    96176.485   -119261.56    -85696.01    55.042065 
  410000   -1291.6703    3677.3828    15401.342    4870.2339     163.4465   -96475.342    8813.5336   -87661.808     352.7088    1509.9374    95858.343   -119296.08   -85550.923    53.975856 
  411000   -1327.0705    3753.5132    15529.163    4902.6475    161.18803   -96260.651     8727.507   -87533.144     349.2661    814.73335    96421.249   -119280.09   -86387.462    53.274958 
  412000     -1332.04    3853.7298    15352.957    4933.8706    170.27346   -96291.992    8693.2952   -87598.696    347.89698    1807.5513    95988.511   -119270.78   -85068.316    54.215308 
  413000   -1354.5358    3665.9839    15477.745    4941.2273    163.69492   -96401.991    8675.3888   -87726.602    347.18039    2887.3799    95294.048   -119296.11    -83713.82    53.928104 
  414000   -1362.8194    3714.9926    15452.747    4923.1138    186.30945   -96333.735    8763.2612   -87570.474    350.69695    1511.1145    95322.654   -119248.08   -85469.748    54.336421 
  415000   -1322.6736    3660.6216    15506.646    4975.3579    168.94884   -96287.056    8830.5491   -87456.507    353.38974    698.65654    95957.342   -119275.96    -86478.78    54.548717 
  416000   -1332.0576    3695.6536    15489.439    5021.8692    170.24007   -96254.479    8620.6963   -87633.783    344.99164    1668.7839    96110.817   -119299.62   -85294.686    54.337251 
  417000   -1341.5701    3654.5309    15393.231    4992.1717    167.01127   -96477.786    8649.4796   -87828.306    346.14353    1881.4972    95658.489   -119343.16   -85203.465    53.807279 
  418000    -1331.597    3661.6892    15504.353    4915.5294    180.96976   -96297.622    8761.0671   -87536.555    350.60914    1649.4557    96256.897   -119228.57   -85221.036    54.778648 
  419000   -1346.5857     3621.974    15463.175    4896.0378     166.6393   -96501.011     8842.501    -87658.51    353.86805    1962.8559    96083.114   -119302.25   -84908.012    54.265514 
  420000   -1321.0574    3543.7148    15502.305    4956.3106    175.02813   -96425.718    8829.8462   -87595.871    353.36162    2024.3723    96001.687   -119282.02   -84761.576     53.61865 
  421000   -1306.7737    3636.1703    15289.996    4978.3061    172.33187   -96434.102    8800.9132   -87633.188    352.20375    2415.7784    96470.977   -119204.13   -84234.357    53.137594 
  422000   -1267.9424    3643.8662    15327.021    4936.8232    159.96672    -96411.25    8806.4112   -87604.839    352.42377     3668.441    95719.277   -119210.98   -82483.815    54.778807 
  423000   -1332.4198    3663.2553    15435.123    4950.4353    172.14884   -96381.942    8862.6078   -87519.334     354.6727    2154.7655    96198.576   -119270.48    -84496.29    54.294184 
  424000   -1268.9301    3727.1377     15314.13    4951.5312    176.29499   -96398.561    8724.9381   -87673.623     349.1633    2578.4915    96611.342   -119298.73   -84040.587    53.642063 
  425000     -1324.25    3669.4964    15475.235    4911.2335    180.69478   -96338.681    8854.1222   -87484.559    354.33312    1617.6049    95963.174   -119251.09   -85220.681    55.453152 
  426000   -1301.2524    3641.7186    15373.298    4923.3644    165.51645   -96440.183    8700.5656   -87739.617    348.18793    1851.7922    96382.582   -119242.83   -85136.662    55.552022 
  427000   -1288.4454    3698.9542    15487.158    4929.3486    182.64724   -96263.892    8757.8588   -87506.034    350.48075    4252.2548    96439.436   -119273.56   -81525.364    54.377319 
  428000   -1296.5221    3636.5807    15433.929     4876.463    169.75064   -96501.156    8802.9693   -87698.187    352.28603    2315.2785    96643.029   -119321.36   -84434.942    54.356056 
  429000   -1305.7738     3694.085    15474.499    4982.8904    168.83629   -96256.048    8757.4527   -87498.595     350.4645    2076.3067    95904.991   -119270.58   -84594.515    54.842481 
  430000    -1258.552    3680.3556    15345.505    4861.0274    160.06675   -96494.128    8918.9538   -87575.174    356.92761    1923.8198    96519.464   -119282.53   -84867.134    53.780194 
  431000   -1233.7941    3647.9805    15390.956     4929.472    162.87057   -96371.251    8849.5433   -87521.708    354.14987    1632.0761    96254.194   -119268.74   -85230.651    53.437572 
  432000   -1328.4345     3703.286    15469.691    4955.6973    168.04045   -96353.212    8676.7031   -87676.508    347.23298    1752.0945    96096.028   -119321.49   -85221.015    53.650173 
  433000   -1265.3812    3615.1994    15486.882    4819.6353    159.76116   -96429.496     8807.071   -87622.425    352.45017    3078.0086    96126.674   -119245.59   -83307.338    54.275528 
  434000   -1311.4842    3620.7455    15387.886    4920.6755    154.34184   -96522.127    8753.9836   -87768.143    350.32567     2357.698    95933.666   -119294.29   -84469.502    54.377742 
  435000   -1301.2978    3707.6107    15407.281    4908.2488    170.94911   -96372.856    8776.7636   -87596.092     351.2373    1955.2285    96082.765   -119265.65   -84856.292    53.907856 
  436000   -1319.1173    3702.9483    15375.567    4913.5038    157.62327   -96454.538     8744.402   -87710.136    349.94222    1489.5678    95890.272   -119285.06   -85627.033    53.474378 
  437000   -1313.4305    3588.1253    15564.402    4900.7911    165.61794    -96349.79    8883.4406    -87466.35    355.50641    2049.8866    95938.127    -119255.3   -84598.232    53.879548 
  438000   -1316.0687    3676.3945    15449.236    4866.6076    175.05773   -96390.935    8698.4432   -87692.492      348.103    1368.7686    96382.061   -119242.16   -85768.505    52.965463 
  439000   -1316.2447     3659.381    15503.002    4879.2461    163.50479   -96417.638    8673.5045   -87744.133    347.10498    1045.8448    95968.254   -119306.53   -86280.371    53.656102 
  440000   -1304.7537    3667.8475    15458.668    4952.7561     177.2179   -96297.819    8627.5254   -87670.294    345.26494    1194.7911    96023.207   -119249.56   -85997.108    54.152477 
  441000   -1349.1538    3578.6102    15522.695    4933.7336    176.51167   -96405.698    8845.0234   -87560.675    353.96899    1137.8004    95901.702    -119268.1   -85969.316    53.166829 
  442000   -1378.0247    3700.1003    15336.565    4996.4385    176.71349   -96429.391      8793.43   -87635.961    351.90428    2372.9031     96083.41   -119261.18   -84310.864    52.304757 
  443000   -1293.3785    3619.1011     15388.48    4960.6399    155.45226   -96454.657    8710.0031   -87744.654    348.56562     3208.046    96079.556   -119284.95    -83249.47     53.79626 
  444000   -1334.7307    3513.5864    15466.386    4938.2587    155.68565   -96515.731    8814.4375   -87701.293    352.74497    1914.9467    96055.803   -119254.92   -85018.692    54.336407 
  445000   -1235.2983     3622.984    15482.536    4855.1552    164.61666   -96333.615    8767.4944   -87566.121    350.86636    2252.3917    96224.058   -119223.61   -84405.274    54.624251 
  446000   -1263.7257    3615.8788     15378.33    4802.4756    164.56596   -96537.484    8773.7133   -87763.771    351.11523    1688.6264    96974.248   -119235.01   -85375.597    54.431325 
  447000   -1274.7118    3735.9415     15499.99    4857.8573    174.36608   -96296.089    8685.3005   -87610.788    347.57704    652.58681    96446.166   -119289.53    -86692.88    54.153949 
  448000   -1285.3879    3726.6268    15475.344      4897.44    160.79342   -96288.177    8814.1901   -87473.987    352.73507    1183.9311    95966.874   -119262.99   -85816.982    54.208739 
  449000    -1236.518    3576.8344    15356.263    4913.1027    170.10536   -96442.122    8723.8331   -87718.289    349.11908    3175.9641    96399.768   -119221.91   -83253.228    54.485123 
  450000   -1196.3575    3683.7478    15456.679    4854.4567    169.59245   -96291.074    8857.6999   -87433.374    354.47629    2936.1032    96690.739   -119259.19   -83293.071     54.96955 
  451000   -1384.0656    3619.4223    15502.787    4937.5132     164.2499   -96402.047    8782.0399   -87620.007    351.44846    2422.3425    96845.568   -119241.95   -84198.707    54.320548 
  452000    -1366.517    3652.4773     15448.28    4897.0813    156.30111   -96504.789    8604.3965   -87900.392    344.33934    1439.4932    96252.091   -119292.41   -85879.721    53.852109 
  453000   -1304.8412    3633.3468    15423.774    4870.5157    179.86287   -96416.209    8771.2212   -87644.988     351.0155    1763.1834    95560.794   -119218.87   -85187.717    53.545906 
  454000   -1289.5262    3747.8295    15563.188    4930.6962    167.31895   -96162.802    8690.2398   -87472.562    347.77471    2356.2125     96057.69   -119282.31   -84171.738    53.138645 
  455000     -1319.89    3642.8961    15530.809    4913.5857    174.26961   -96318.731    8642.4736   -87676.257    345.86315    2535.2075    96035.862    -119260.4   -84125.485     54.22935 
  456000    -1285.153    3724.1056    15487.397    4836.8042    165.69376   -96303.374    8847.4344   -87455.939    354.06548    1706.0341    95432.089   -119232.22   -85081.517    54.220661 
  457000   -1307.1115    3724.2145    15513.083    4853.9751    186.41018   -96335.154    8750.3625   -87584.791    350.18075    1639.5854    95834.379   -119305.73   -85293.231    54.133411 
  458000   -1283.1476    3709.6964    15402.669    4901.6876    183.68912   -96324.556    8585.1611   -87739.395    343.56956    2545.8547    96017.378   -119239.15   -84174.396    53.138492 
  459000   -1241.7634    3565.9134    15422.214    4900.3175    186.05826   -96428.599    8747.4265   -87681.173    350.06326     1667.007    96781.879   -119261.34   -85328.252    54.073819 
  460000   -1259.7993    3715.6209    15455.748     4882.296    163.11539   -96364.382    8622.9756   -87741.407    345.08286     2301.439    96532.566   -119321.36   -84501.375    53.643433 
  461000   -1317.9539    3641.4656    15470.955    4927.4666    166.71765   -96415.099    8853.4247   -87561.674     354.3052    1781.7508    95865.904   -119303.75   -85070.598    53.786398 
  462000   -1354.8993    3674.4959    15384.414    4953.6109    177.49344    -96490.55    8702.3784   -87788.171    348.26048    2112.1018    95688.961   -119325.66    -84840.68    54.403154 
  463000   -1344.0151    3639.5646    15426.873    4926.0878    158.84458   -96476.059    8793.6931   -87682.366     351.9148    2565.3447    95994.503   -119283.41   -84090.931     53.04632 
  464000   -1303.5195    3693.5912    15393.144    4936.0091    176.36726   -96343.122    8875.5208   -87467.601    355.18947    1993.5061    95833.956   -119238.71   -84681.398    54.645663 
  465000   -1399.8897    3635.1795     15493.67    4912.1397    164.77835    -96472.48     8714.183   -87758.297    348.73289    1450.1018    95458.725   -119278.36   -85739.512    54.172577 
  466000   -1345.3082    3593.5348    15502.127    4958.0666    156.41117   -96414.115     8684.163   -87729.952    347.53152    2059.9934    95861.941   -119278.95   -84849.982    53.603728 
  467000   -1396.4155    3705.3321    15500.194    4945.3928     159.5659   -96386.022    8753.5263   -87632.496    350.30737     1235.256    95740.363   -119300.09   -85907.739    53.978513 
  468000   -1348.1505    3625.9135    15516.642    4930.6634    159.84301   -96408.117    8764.9248   -87643.192    350.76352    3407.9471    95369.857   -119293.03   -82903.175    54.909017 
  469000   -1324.3599     3703.536    15377.743    4908.1599     173.6784   -96470.924    8720.2883   -87750.635    348.97722    515.03543    95635.551   -119309.68   -87032.291    54.951085 
  470000    -1283.521    3559.1325    15450.967    4875.4146    160.93417    -96525.69    8650.0367   -87875.654    346.16582    3777.9285    95296.232   -119288.62   -82625.097    54.806845 
  471000   -1352.7484    3691.8097    15446.618     4942.672    163.84887   -96402.299    8796.2966   -87606.003    352.01899    2034.0947    95795.719    -119294.5   -84764.205    54.421902 
  472000   -1293.2371    3718.1785    15455.115    4962.1262    184.89555   -96287.313     8654.975   -87632.338    346.36344    2755.7647    95491.859   -119314.39    -83794.52    53.682481 
  473000   -1352.6695    3648.0906    15487.784    4897.5306    163.08201   -96402.603    8782.8069   -87619.797    351.47915    1949.1023    95535.709   -119246.42   -84904.131    53.996211 
  474000   -1288.2827    3715.0613    15507.376    4885.1695    165.22403   -96274.448    8811.3761   -87463.072    352.62246    2034.2521    96106.209      -119259   -84611.843    53.528489 
  475000   -1339.4881    3694.4744    15496.486    4897.7267    160.46915   -96368.919    8724.5825   -87644.336    349.14907    2530.7779    95549.899   -119278.59   -84117.704    53.892659 
  476000   -1325.9683    3722.1215     15480.39    4956.2867    159.16599   -96250.604    8783.8736    -87466.73    351.52184     2632.903     96293.74    -119242.6   -83769.225    53.344027 
  477000   -1297.4965    3663.6816    15434.942    4919.9794     171.7913   -96385.773     8720.801   -87664.972    348.99774     2398.204    95725.496   -119278.67    -84316.94    54.186087 
  478000    -1360.763    3764.4086    15488.621    4963.7137    165.15254   -96269.792    8728.4254   -87541.366    349.30286    1729.9015    95861.163   -119290.93     -85122.9    54.298836 
  479000   -1274.9132    3702.4613    15478.589    4884.4344    180.83771   -96353.659     8695.901   -87657.758    348.00126    1790.4041    95933.576   -119325.07   -85152.816    54.172551 
  480000   -1364.9436    3682.0215     15393.32    4950.3085    181.07688   -96406.564    8864.4567   -87542.107    354.74669    2254.2759    95829.543   -119248.35   -84391.586    54.431932 
  481000   -1354.2758    3675.2428    15489.397    4978.8052    174.39545   -96329.133    8672.6743   -87656.458    347.07175    1445.1234    95343.225    -119292.7   -85647.039    52.721235 
  482000   -1338.9196    3621.8304    15443.119    4979.4178    151.71543   -96443.143    8664.5286   -87778.614    346.74577    1808.6392    96168.437   -119300.31   -85241.965    53.969084 
  483000   -1446.8152    3795.0447    15432.165    4998.8842    164.95473   -96338.472    8821.7068   -87516.765    353.03588    200.49284    95633.219   -119282.71   -87237.135    54.653843 
  484000   -1286.4811    3652.6074    15448.392    4901.5585    159.30692   -96386.526    8528.5008   -87858.025    341.30207    888.47558    96253.814   -119261.91   -86610.816    54.288277 
  485000   -1307.5476    3690.9951    15442.795    4886.8883    162.74766   -96381.695    8680.6851    -87701.01    347.39234    1471.8656    96054.608   -119257.57   -85639.135    54.319144 
  486000   -1294.5381    3690.3142    15495.022    4934.4916    178.68577   -96242.102    8865.4563   -87376.645     354.7867     2389.147    96396.367   -119246.08   -84017.882    54.312405 
  487000   -1263.9975    3598.1512    15475.075    4863.3241     167.5783   -96417.786    8666.8863     -87750.9    346.84012    1548.7745    95945.895   -119257.92   -85583.742    54.734561 
  488000   -1298.6197    3821.3092    15566.571      4883.92    166.73828   -96193.147    8824.5078    -87368.64    353.14798    2344.9858     96732.36   -119333.07   -84060.469    54.798769 
  489000   -1307.9555    3679.6299    15381.779    4900.2654    161.17099   -96474.787    8777.7256   -87697.061     351.2758    1975.9647    96147.248   -119289.68   -84926.346    54.300036 
  490000   -1311.7425    3718.0147    15426.789    4941.8853    177.16338   -96306.615     8730.204   -87576.411    349.37403    2199.7432     96586.36   -119258.73   -84477.824    53.812083 
  491000   -1285.3335    3637.5065    15357.175    5002.5204    168.52111   -96440.812    8709.2565   -87731.556    348.53574    2672.9928    95426.784    -119321.2   -84011.547    53.398046 
  492000   -1341.9278    3654.4675    15506.303    4940.7948    161.69024   -96371.031    8622.2083   -87748.822    345.05216    2668.2825    95831.973   -119292.36   -84019.601    53.245242 
  493000   -1292.3797    3690.3912    15368.193    4942.6237    171.44914   -96397.482    8773.3327   -87624.149        351.1    1773.7643    95521.389   -119277.76   -85153.151    53.592417 
  494000   -1296.2607    3644.1141     15422.24    4912.9288    157.60055   -96423.836    8824.7571   -87599.079    353.15795    1718.7361     96010.23   -119264.46   -85192.487    53.280769 
  495000   -1357.2236    3705.8387    15535.096    4950.3417    171.80906   -96311.011    8758.6057   -87552.406    350.51064    1890.5833    95859.172   -119316.87   -84909.356    53.910922 
  496000   -1343.0049    3797.7163    15467.634     4982.947    174.69743   -96249.691     8737.068   -87512.623    349.64872    871.91469    96604.938   -119329.68   -86284.196    53.362701 
  497000   -1306.2307    3705.0479    15444.557     4903.774    185.50957   -96334.182    8796.0686   -87538.114    352.00987    759.88862     95920.59   -119266.84   -86475.103    54.375525 
  498000   -1252.0127     3643.257    15422.094    4852.3043    175.67604   -96406.699    8697.4671   -87709.232    348.06394    1665.2933    96652.309   -119248.02   -85361.876    54.715655 
  499000   -1289.5644    3621.4754    15446.832    4913.3184    160.99086   -96408.491    8887.3702   -87521.121    355.66367    1876.7617    96214.356   -119261.54   -84887.672    53.477609 
  500000   -1292.6642    3663.8939    15498.098    4908.9007    173.08489   -96305.787    8723.8419   -87581.946    349.11943    1387.6906    95702.949    -119257.1   -85645.105    54.676333 
  501000    -1332.401    3678.6827    15391.792    4965.6252    165.19935   -96377.317    8603.2133   -87774.104    344.29199    1581.6474    95962.507   -119246.21   -85560.565    54.693893 
  502000   -1320.3577    3705.8855     15530.03    4964.6707    165.11435   -96238.522    8803.7306   -87434.791     352.3165    1274.5656    96133.317   -119283.86   -85647.843     53.65244 
  503000   -1283.2679    3501.9554    15488.027      4957.87    158.43238   -96431.055    8790.9902   -87640.065    351.80664    2780.2046    95505.034   -119254.07   -83767.677    54.397642 
  504000   -1271.5126    3660.6091    15432.092    4936.3156     169.8303   -96317.911    8685.7981   -87632.112    347.59695    2279.5741    96539.229   -119245.24   -84422.642    54.714347 
  505000   -1298.4365     3682.699    15484.947    4844.1349    171.01494   -96404.018    8592.1491   -87811.869    343.84921    3198.9908    95712.129   -119288.38   -83346.516    54.729726 
  506000   -1330.5473    3576.0427    15482.349    4969.9423    182.53119   -96328.672    8681.7813    -87646.89    347.43621    2728.0162    95683.258   -119208.99   -83840.101    53.931173 
  507000   -1301.3663    3733.0427    15434.856    4868.3396    162.17597   -96408.459    8865.6537   -87542.806     354.7946    1168.2398    96149.977   -119305.51   -85904.643    54.448882 
  508000   -1309.9653    3597.7468    15480.276    4875.8391    162.52513   -96443.068    8733.1482    -87709.92    349.49186    2064.4424    96158.399   -119249.49   -84814.805    54.829281 
  509000   -1330.2628     3592.797    15431.458    4985.5432    155.35185   -96434.929    8613.7692    -87821.16    344.71443    1256.2594    95857.361   -119269.82   -86064.933    53.887463 
  510000   -1321.9455    3641.7067    15425.566    4942.4815    162.69822   -96432.724    8717.6375   -87715.086    348.87113    2425.9962    96009.819   -119283.23   -84318.195    53.909504 
  511000    -1272.285     3647.026    15457.923    4909.8698    171.31473   -96343.836    8730.1119   -87613.724    349.37035    3554.5591    95360.215   -119257.68   -82670.289     54.52924 
  512000   -1350.3887    3741.2366    15423.697    4936.2742     183.9167   -96327.208    8854.7809   -87472.427    354.35948    1041.1835    96153.628   -119261.94   -86012.373    53.914195 
  513000   -1280.4478    3653.5946    15450.326    4917.5262    171.37332    -96312.87    8832.4877   -87480.383    353.46733    3114.4864    95483.761   -119225.24   -83143.359    53.866784 
  514000   -1308.5125    3656.5134    15449.092    4938.9149    155.56106   -96399.876    8769.8238   -87630.052    350.95958    838.40207    96343.006   -119291.44   -86452.043    53.827652 
  515000   -1325.4602    3626.3996    15422.933    4983.6423    151.33394   -96379.843     8743.028   -87636.815    349.88724    2050.2272    95782.891   -119238.69   -84772.862    54.218056 
  516000   -1330.5171    3711.2521    15463.574    4959.6836    171.16109   -96335.118    8717.5558   -87617.562    348.86787    1007.9722    96028.483   -119310.27    -86205.92    54.044376 
  517000   -1328.4081    3579.1093     15329.99    4965.9858    167.16321   -96543.125    8665.3061   -87877.819    346.77688    808.12366    96209.257   -119256.97    -86743.93    53.864397 
  518000   -1332.7906    3644.4441    15444.469    4925.0219    167.68102   -96401.664    8839.6879   -87561.976    353.75547    1755.7365    96137.547   -119250.49   -85100.315    53.953776 
  519000   -1339.5964    3625.5764    15427.608    5016.7344     180.0864   -96364.955    8644.0779   -87720.877    345.92736    997.43055      95814.4   -119275.36   -86327.113    53.763897 
  520000   -1300.9559     3653.787    15408.182     4974.624    169.73926    -96318.06    8722.5182   -87595.542    349.06646     2363.946    96064.958   -119223.44   -84283.632    53.682498 
  521000   -1340.8855    3649.6713    15445.439    4908.4788    170.18725   -96403.216    8858.7965    -87544.42    354.52018    1906.3707    95849.728   -119236.11   -84879.561    54.216807 
  522000   -1319.7983    3654.3421    15370.499    4937.1567     175.6126   -96427.925    8801.8117   -87626.114     352.2397    1856.1691    95876.598   -119245.74   -85030.703    53.801264 
  523000   -1366.6671    3738.8115    15432.468    5011.6169    157.90865    -96296.47    8728.2455   -87568.225    349.29566    607.82128    96302.517   -119270.61   -86714.556    53.661937 
  524000   -1331.7608    3738.6257    15546.042    4960.6434    162.44104   -96236.529    8832.9012   -87403.628    353.48387     1785.877    95609.117   -119312.52   -84913.471    54.221805 
  525000   -1304.4153    3685.4371    15429.351    4898.9664    150.75865   -96415.815    8685.1291   -87730.686    347.57018    2024.5949    96620.654   -119275.91   -84877.803    54.228426 
  526000   -1334.4987    3770.5237    15427.979    4871.8726    164.39078   -96318.369    8817.3939   -87500.975    352.86329    1583.4529    96039.909   -119218.64   -85283.122    53.375194 
  527000   -1374.2964    3688.0099    15450.807    4946.4159    156.22664   -96389.894    8774.1081   -87615.786    351.13103     2047.974    96692.235   -119257.06   -84727.821    54.238653 
  528000   -1304.0693     3714.314    15351.847    4908.6503    171.85159   -96417.505      8786.78   -87630.725    351.63815    1410.6092    95641.038    -119260.1    -85663.17    53.710201 
  529000   -1319.9374    3662.3323    15286.581     4912.236    174.17722   -96497.615    8765.4577   -87732.157    350.78485    2810.3417    96549.508      -119213   -83774.984    53.789795 
  530000   -1299.4271    3586.0731    15444.187    4905.4178    165.61395   -96442.891    8805.4103    -87637.48    352.38371    2076.8986     95687.64   -119244.76   -84739.156    54.374106 
  531000   -1333.8334    3614.5853     15376.97    4910.0993    164.89939   -96541.743    8743.8457   -87797.897    349.91996    2168.8929    95917.041   -119274.46   -84763.938    53.782733 
  532000   -1301.3166    3730.9638    15421.736    4946.7626    181.20565   -96364.868    8796.3284    -87568.54    352.02027    1847.8799    95244.266   -119344.22   -85001.761    53.757409 
  533000     -1302.47    3661.5645    15469.101    4898.4542    169.12698   -96384.866    8732.8252    -87652.04    349.47893     1799.503    96242.776   -119280.64   -85126.254    54.133953 
  534000   -1316.9973    3650.7278    15524.796    4890.2692    156.73034   -96341.115    8834.5889   -87506.526    353.55141    1830.4115    96363.642   -119246.64    -84934.13    54.586333 
  535000    -1361.233    3664.9684     15467.59    4903.5113    182.23833   -96357.918    8695.0365   -87662.881    347.96666    2013.3779    96504.338   -119214.99   -84829.219    53.546178 
  536000   -1337.7833    3698.8627    15476.882    4961.1015    166.54531   -96303.998    8891.0432   -87412.955    355.81066    1811.7991    95835.016   -119269.61   -84880.684    53.500297 
  537000   -1231.0846    3699.4997     15318.31    4844.6817    168.36988   -96411.324    8815.2356   -87596.089    352.77691    2121.7271    97134.814    -119211.1   -84590.425    54.455233 
  538000   -1366.2641    3709.9346    15476.686    4905.6575    165.54449   -96404.291    8559.2172   -87845.074    342.53131    1629.0253    96125.845   -119295.85   -85561.348    53.969211 
  539000   -1302.8411    3653.9322    15498.211    4884.7662    169.48353   -96340.639    8724.3933   -87616.246    349.14149    2147.0731    96242.523   -119244.19   -84602.617    53.884435 
  540000   -1287.7893    3675.4187    15375.663    4899.3377    169.86943   -96408.585    8741.7201   -87666.865     349.8349    2292.2115    96267.336   -119241.09   -84448.691    53.998768 
  541000   -1299.4687    3614.0218    15528.004    4833.0892    165.96515   -96427.814    8682.4759   -87745.338      347.464    1688.6395    96507.321   -119269.43   -85368.645    54.771786 
  542000   -1353.8837    3711.9568    15413.431    4935.1042    171.58953   -96355.499    8728.1065   -87627.393    349.29009    926.04387    96516.185    -119233.7   -86323.903    53.547208 
  543000   -1280.2852    3678.9816    15458.968    4913.7514     161.1302   -96304.937    8752.0647   -87552.872    350.24888    1028.7415     95858.02   -119237.48   -86114.701    54.036923 
  544000   -1338.1307    3761.8414    15406.299    4912.4556    165.77163   -96352.604    8740.4947   -87612.109    349.78586    605.43425     96561.56   -119260.84   -86759.506     54.27951 
  545000   -1320.6992    3622.4025    15422.323    4942.9763    159.60147   -96433.396     8712.187   -87721.209    348.65301    1925.4432    96600.492      -119260   -85008.608    54.318081 
  546000   -1293.5172    3681.9056    15370.116     4934.461    173.02932   -96418.459    8871.2188    -87547.24     355.0173    2605.6388    95860.615   -119284.45   -83904.482    54.291331 
  547000   -1307.8824    3604.2951    15416.307    4919.2468    154.97542   -96505.724    8725.8659   -87779.858    349.20043    2426.5526    96120.817   -119292.67   -84378.259    53.424509 
  548000   -1268.9115    3669.9249    15454.317    4820.7924    161.74208   -96449.782     8839.564   -87610.218    353.75051    933.05116     96057.42   -119287.65   -86303.108    54.540404 
  549000   -1291.2353    3662.5543     15476.87    4896.6065    154.53593   -96358.999    8666.2748   -87692.724    346.81565    2444.5797    96358.632   -119258.33   -84257.376    53.999333 
  550000   -1349.8362    3649.1741    15345.666     4905.826    172.75936   -96566.508    8767.1292   -87799.379    350.85174    707.28648    96022.764    -119290.1   -86808.899    54.024197 
  551000   -1324.8172    3670.8052    15445.112    4904.7855    173.70082    -96404.77    8702.2923   -87702.478    348.25703    2081.4552    96201.717   -119274.36   -84782.189    54.053975 
  552000   -1287.8638    3616.2775    15505.567     4966.745    183.51847   -96305.853    8792.0859   -87513.767    351.85049    3032.2122     95188.32    -119290.1   -83304.377    53.641159 
  553000   -1295.0335    3664.7464    15466.795    4866.0816    163.30433   -96405.795    8777.9669   -87627.828    351.28546    3272.0973    96163.545   -119271.69   -83038.887    54.393896 
  554000   -1346.2122    3680.4623    15463.494    4915.8604     170.3537   -96391.983     8765.994   -87625.989    350.80631    2084.8245    96189.758   -119275.94   -84701.337    54.828637 
  555000    -1348.076    3640.6205    15463.892    4847.8995    157.93456   -96500.713    8917.8797   -87582.833    356.88463     1802.207    95861.801   -119262.98   -85063.265    52.953825 
  556000   -1308.5233    3729.2442    15491.137     4893.714    182.00993   -96328.958    8753.0341   -87575.924    350.28767    1799.3545    95938.155   -119316.54    -85058.34    53.748781 
  557000   -1253.9272     3685.456    15472.999    4950.8355    167.94038   -96251.266    8636.9055    -87614.36    345.64032    2647.4961    96689.287   -119274.57   -83881.089    53.494959 
  558000   -1377.7927    3629.3979     15391.86    4905.9097     177.7862    -96540.71    8720.1546   -87820.555    348.97187    1951.2214    95791.567   -119267.87   -85094.656    54.504755 
  559000   -1331.0705    3742.6109    15406.287    4910.0661    161.22244   -96412.928     8789.766   -87623.162    351.75764    1889.9081    96224.629   -119302.04   -84970.983      54.2847 
  560000   -1271.9373    3668.3003    15449.638    4876.7857    168.96392   -96389.436     8643.958   -87745.478    345.92255    1965.9548    95934.363   -119281.19   -84994.903    53.834239 
  561000   -1319.4635    3751.0099    15377.584    4824.7908    166.16899   -96449.891    8904.4777   -87545.413    356.34829    2157.2597    95877.978   -119249.98   -84528.956    53.788484 
  562000   -1403.7669    3667.2749    15494.351    5004.3958    190.81113    -96332.07    8595.6136   -87736.456    343.98786    1978.3657    95606.037   -119285.14   -84977.989    53.488907 
  563000   -1305.9926    3678.4059    15389.347    4938.2885    175.71365   -96385.623    8774.6985   -87610.924    351.15466    1798.7486    96274.153   -119261.39   -85085.373     53.97752 
  564000   -1354.8189    3642.8194    15509.003    4958.7941    182.54103   -96411.636    8698.7054   -87712.931    348.11349    2315.2304    95622.867   -119349.97     -84484.2    53.712408 
  565000   -1338.2853    3668.0266    15428.839    5011.5583    189.48868   -96351.776    8649.3311   -87702.445    346.13758    1961.7752    95236.477    -119311.4   -84977.684     53.72308 
  566000   -1336.0453    3693.5207    15385.013    4935.4826    169.94581   -96424.924    8683.4422   -87741.481    347.50267    2667.0856    95423.837   -119272.84   -84029.808    54.751697 
  567000   -1345.9241    3630.2234    15401.849    4982.9955    152.19439   -96448.639    8602.1293    -87846.51    344.24861    1876.5559    95752.717   -119269.98   -85225.984    54.921366 
  568000   -1276.1933    3721.9047    15425.667    4976.6261    154.96634   -96287.982    8721.9208   -87566.061    349.04255    2637.1356    96167.303   -119290.95   -83867.475    54.440043 
  569000   -1353.3348    3721.1942    15408.828    4980.2532     163.2205   -96323.721    8748.3147   -87575.406     350.0988    964.04096    95770.394   -119243.88   -86228.918    53.932167 
  570000   -1318.3693    3657.0137    15521.316    4953.8629    145.62735   -96313.449    8653.3242   -87660.125    346.29738    2695.7704    95539.486    -119272.9   -83903.985    53.907283 
  571000   -1357.8268    3694.4473     15573.37    4939.1778    172.12884   -96229.687    8808.9257   -87420.761     352.5244    2302.5417    95098.042   -119250.98   -84227.349      54.4497 
  572000   -1318.4125    3599.9457    15507.172    5028.8217    163.30089   -96294.072    8649.8939   -87644.178     346.1601     2591.897    95344.931    -119274.9   -84040.125    54.361774 
  573000     -1303.65    3564.0959    15501.723     4951.447    165.37405   -96397.608     8755.572   -87642.036    350.38924    1808.4568     95406.25    -119276.6   -85125.745    54.461431 
  574000   -1336.0303    3645.6406    15466.821     4974.132    173.67676   -96366.459    8958.2908   -87408.168    358.50184     2100.316    95456.002    -119290.7    -84484.26    54.499468 
  575000   -1346.6378    3622.2708    15531.925     4938.738    185.75715   -96341.959    8674.3402   -87667.619    347.13842    1878.2035    95814.388   -119274.01   -85043.103    54.808218 
  576000   -1333.2348    3731.5428     15417.75    4952.9354    191.31672   -96353.715    8736.0582   -87617.657    349.60831    2615.7744    95657.856   -119314.03   -83968.464    54.738361 
  577000   -1298.1206    3653.7976    15473.867    4939.6885    163.78119    -96254.62    8693.3889   -87561.231    347.90073    2200.6773    95064.057   -119187.63   -84510.186    54.294054 
  578000   -1369.5782    3576.1068    15546.711    5014.5486    180.92434   -96303.953    8638.0347   -87665.918    345.68551    2196.8896    95707.201   -119252.67   -84599.519    54.011347 
  579000   -1340.5267    3618.5449    15434.649    5001.8536    170.74722   -96411.666    8724.6601   -87687.006    349.15217    2483.2151    94480.452   -119296.93   -84265.383    53.269989 
  580000   -1334.8187    3707.9608    15542.648    4931.7002    176.66594    -96299.68      8848.06    -87451.62    354.09051    2079.2673    95459.198   -119323.84   -84556.917    54.369831 
  581000   -1312.6239    3606.2022    15395.264    4916.0547    173.37683   -96454.109    8656.4574   -87797.652    346.42277    1493.1453    95652.018   -119232.38   -85714.734    54.404407 
  582000   -1348.4155     3651.775     15502.38    4914.1452    139.87942   -96399.598    8729.9498   -87669.648    349.36386    2719.6247    95326.253   -119259.36   -83888.729     53.93557 
  583000   -1337.4535    3710.4186     15415.51     4961.718    155.15024   -96383.637    8815.6411   -87567.996    352.79314      2153.95    95337.219   -119288.98   -84573.154    53.724987 
  584000   -1360.3207     3740.455    15432.497    4928.5512    158.45596   -96390.302    8623.8898   -87766.412    345.11945    2871.6611    94600.833   -119289.94   -83804.507    53.735195 
  585000   -1295.1232    3699.6775    15477.506    4889.6449    175.97712   -96352.156    8777.2378   -87574.918    351.25628    1917.8682    94997.816   -119299.84   -84917.816    54.299293 
  586000   -1394.9645    3717.9794    15445.865    4914.0568    153.73939   -96405.329    8897.1977   -87508.131    356.05695     1662.592    95191.198   -119242.01   -85200.011    53.264499 
  587000   -1384.2678    3628.0796     15445.28    4933.8619    156.30159    -96469.14    8588.2864   -87880.853    343.69463    2102.3242    94798.122   -119248.39    -84974.32    53.955738 
  588000   -1386.1602    3667.3474    15399.309    4934.8234    151.08242   -96479.473    8905.0718   -87574.401    356.37207    1397.7035    94864.926   -119245.87   -85640.667    54.602878 
  589000   -1319.3267     3642.999    15470.373    4919.8871    180.78478   -96400.962    8908.7233   -87492.238     356.5182    2135.9169    95586.734   -119295.68   -84514.696    53.334505 
  590000   -1364.1409    3672.5845    15422.795    4961.6472    150.14446   -96418.624    8774.8478   -87643.777    351.16063    1773.4858    95340.025   -119261.65   -85177.857    54.281102 
  591000   -1322.9242    3641.0981    15485.883    4860.6691    187.97283   -96447.844    8811.1301   -87636.714    352.61262    2133.9822    95449.717   -119300.54   -84666.134    54.044752 
  592000   -1328.3884    3629.1278    15455.878    4880.9812    172.74304   -96453.713     8761.682   -87692.031    350.63375    2108.9214    95556.657   -119264.05   -84753.047    54.301083 
  593000   -1276.4748    3671.5021    15497.387    4866.5957    187.68893   -96337.094    8813.2173   -87523.877    352.69614    1670.9991    95939.392   -119283.79   -85185.852    54.178301 
  594000   -1298.1233    3671.6233    15427.875    4861.3605    167.27498   -96402.079    8662.6939   -87739.385    346.67235    1674.6617    95645.697   -119232.09   -85403.409    53.224441 
  595000   -1302.2232    3807.8697    15439.039    4880.6535    186.32665   -96276.034    8730.1811   -87545.853    349.37312    1616.5909    96579.132    -119287.7   -85268.872    53.878225 
  596000   -1346.6616    3751.6369    15398.118      4919.61    167.88166   -96358.487      8687.85   -87670.637    347.67907    1277.4599    95436.598   -119249.07   -85892.611    53.915191 
  597000   -1285.9859    3686.2046    15388.745    4920.2007     172.2423   -96369.372    8742.2336   -87627.139    349.85545    1907.3035    95381.079   -119250.78   -84974.012    53.477366 
  598000   -1308.9427    3702.4816    15389.561    4895.7832    182.56005   -96408.375    8781.1224   -87627.253    351.41174    2393.0761    95400.636   -119269.82   -84297.717    53.612496 
  599000   -1325.9105    3702.9458    15466.555    4865.6603    161.03331   -96390.863    8696.5466   -87694.317     348.0271    1984.3225    95490.905   -119261.15   -84930.876    54.339675 
  600000    -1350.788    3595.2033    15497.087     4901.188    153.60457   -96495.073    8737.3485   -87757.724    349.65995    2113.0982    95150.896   -119291.37   -84825.424     52.84094 
  601000   -1335.0445    3779.0708    15453.135    4943.6649    162.14847   -96261.883    8783.1572   -87478.726    351.49317    1008.2189    95463.196   -119264.86    -86075.05    53.699123 
Loop time of 9174.91 on 56 procs for 500000 steps with 8384 atoms

Performance: 4.708 ns/day, 5.097 hours/ns, 54.496 timesteps/s
97.9% CPU use with 56 MPI tasks x no OpenMP threads

MPI task timing breakdown:
Section |  min time  |  avg time  |  max time  |%varavg| %total
---------------------------------------------------------------
Pair    | 5930.1     | 6635.5     | 7221.7     | 349.5 | 72.32
Bond    | 162.62     | 210.68     | 249.5      | 156.4 |  2.30
Kspace  | 973.61     | 1596.2     | 2354.2     | 740.4 | 17.40
Neigh   | 90.35      | 90.726     | 91.105     |   3.1 |  0.99
Comm    | 100.61     | 112.64     | 141.36     | 110.2 |  1.23
Output  | 0.036957   | 0.037659   | 0.046248   |   0.6 |  0.00
Modify  | 434.18     | 509.52     | 533.57     | 123.9 |  5.55
Other   |            | 19.59      |            |       |  0.21

Nlocal:        149.714 ave         167 max         133 min
Histogram: 3 1 7 7 11 11 6 5 3 2
Nghost:        6153.62 ave        6231 max        6112 min
Histogram: 7 7 9 14 6 4 4 3 0 2
Neighs:        75573.8 ave       85076 max       66463 min
Histogram: 2 3 8 5 12 8 8 4 4 2

Total # of neighbors = 4232133
Ave neighs/atom = 504.78686
Ave special neighs/atom = 6.1984733
Neighbor list builds = 19674
Dangerous builds = 0
write_data      data_2_200MPa.*
System init for write_data ...
PPPM initialization ...
  using 12-bit tables for long-range coulomb (../kspace.cpp:340)
  G vector (1/distance) = 0.27550953
  grid = 45 54 54
  stencil order = 5
  estimated absolute RMS force accuracy = 0.00022662618
  estimated relative force accuracy = 6.82478e-07
  using double precision FFTW3
  3d grid and FFT values/proc = 9744 2576
WARNING: Not all mixed pair coeffs generated from mixing. Use write_data with 'pair ij' option to store all pair coeffs. (../write_data.cpp:312)
unfix 1

fix             1 all npt temp  ${TEMP} ${TEMP} 100  tri  1000 1000 1000
fix             1 all npt temp  350 ${TEMP} 100  tri  1000 1000 1000
fix             1 all npt temp  350 350 100  tri  1000 1000 1000
run		500000
PPPM initialization ...
  using 12-bit tables for long-range coulomb (../kspace.cpp:340)
  G vector (1/distance) = 0.27550953
  grid = 45 54 54
  stencil order = 5
  estimated absolute RMS force accuracy = 0.00022662618
  estimated relative force accuracy = 6.82478e-07
  using double precision FFTW3
  3d grid and FFT values/proc = 9744 2576
WARNING: Inconsistent image flags (../domain.cpp:814)
Per MPI rank memory allocation (min/avg/max) = 22.60 | 22.84 | 23.20 Mbytes
Step E_vdwl E_bond E_angle E_dihed E_impro PotEng KinEng TotEng Temp Press Volume v_coulomb Enthalpy S/CPU 
  601000   -1335.0445    3779.0708    15453.135    4943.6649    162.14847   -96261.924    8783.1572   -87478.767    351.49317    1008.7448    95463.196    -119264.9   -86074.359            0 
  602000   -1272.2696    3586.9378    15408.227    4862.4197    181.95369   -96424.081    8786.1566   -87637.925     351.6132    1457.9922     98754.62   -119191.35   -85538.073    52.005907 
  603000   -1192.8262    3759.0831    15524.861     4790.663    179.98865   -96188.634    8732.8076   -87455.826    349.47823    122.50564    98937.047    -119250.4   -87279.064    51.739639 
  604000   -1140.5146    3592.4243    15420.504    4840.1911    168.31662   -96370.184    8739.4482   -87630.736    349.74398    1553.7821    99346.378   -119251.11   -85379.516    53.180782 
  605000   -1156.7694    3608.4365    15408.287    4791.2984    156.24951   -96410.675    8620.8423   -87789.833    344.99749    1129.3929    100128.28   -119218.18   -86140.616    52.736803 
  606000   -1143.8845    3631.6775    15481.139    4850.8316    165.17104   -96253.089    8847.7176   -87405.372    354.07681      1759.43     99730.15   -119238.02   -84846.348    53.732902 
  607000   -1135.4045    3633.0472    15378.916    4833.8986    164.89734   -96409.911    8745.5802   -87664.331    349.98938    564.66441    101011.51   -119285.27   -86832.496    53.970572 
  608000   -1164.5269    3589.2011    15314.824    4811.2884    175.33055   -96558.655    8751.1659   -87807.489    350.21291    1529.5867    100479.45   -119284.77   -85566.048    53.204165 
  609000   -1170.3279    3700.2706    15384.457    4858.1636    162.26454   -96321.261     8859.684   -87461.577     354.5557    2004.7881    101062.93   -119256.09   -84506.722    53.854461 
  610000   -1140.2628    3692.3361    15413.974    4859.1584    158.75064   -96217.762    8709.6564   -87508.106    348.55174    1894.1352    100545.82   -119201.72   -84730.626    53.467078 
  611000   -1196.1234    3634.4311    15435.508    4765.0276    161.09697   -96439.427    8770.0185   -87669.408    350.96737    229.04108    100314.15   -119239.37   -87334.326    53.146069 
  612000   -1170.2112    3628.1607    15312.334    4902.0169     188.7767   -96414.286    8780.7953   -87633.491    351.39865    1328.3525    99986.155   -119275.36   -85696.493     54.19112 
  613000   -1191.8454    3674.8719     15415.97    4832.6955     155.3992   -96359.918    8616.2919   -87743.626    344.81539    418.06946    99988.288   -119247.01   -87133.986    53.542073 
  614000    -1184.137    3616.0954    15417.026    4760.7768    149.27069   -96467.059    8911.9695    -87555.09    356.64811    973.98899    100874.16   -119226.09    -86122.21    53.802865 
  615000   -1078.1626    3709.5208    15376.833    4749.1295    145.75077   -96376.554    8852.7382   -87523.816    354.27773    1342.5863    100510.98   -119279.63   -85555.787    53.711961 
  616000   -1130.1756    3722.6699    15359.738     4740.914     167.6413   -96398.628     8628.217   -87770.411    345.29261    1785.6588    100927.88   -119259.42   -85142.047    52.237472 
  617000   -1153.5111    3651.3233    15513.474    4784.1346    161.17687   -96307.021    8736.5621   -87570.458    349.62848    600.38158    100717.26   -119263.62   -86688.583    52.953379 
  618000   -1195.9831    3706.4619    15430.172    4866.3449    170.64187   -96246.894    8848.8959   -87397.998    354.12397    1698.8433    99741.692   -119224.53   -84926.809    53.435739 
  619000   -1207.3127    3693.8752    15370.497    4849.5575    189.86307   -96366.127    8739.6792   -87626.448    349.75322    125.72031    100100.53   -119262.61   -87442.914    52.512456 
  620000   -1174.5169    3653.9052    15440.415    4790.5862    167.95784   -96382.318    8651.1113   -87731.206    346.20882    1429.5079    99907.095   -119260.67   -85648.353    53.114999 
  621000   -1212.7709    3775.5724    15387.864    4826.2843    151.42819   -96302.357    8684.2133   -87618.144    347.53353    183.46092    100155.59   -119230.73   -87350.169     54.56473 
  622000   -1177.4298    3708.3932    15418.665    4825.4227     143.5373   -96295.554    8781.2609   -87514.293    351.41728    789.62686    100859.09   -119214.14    -86352.81    53.877243 
  623000   -1173.1086    3769.6308     15364.15    4806.1085    173.36267   -96320.072    8573.4062   -87746.665    343.09914    1892.7713    100424.23   -119260.22   -84974.542    54.153381 
  624000   -1128.0748    3634.7712    15469.423    4764.6546    149.08225   -96376.696    8651.1971   -87725.498    346.21226    972.29648    101050.61   -119266.55   -86292.606    54.448968 
  625000    -1175.473    3733.0984    15348.024    4791.2709    166.44729   -96374.074    8723.4484   -87650.626    349.10368    1125.8761    100557.52   -119237.44   -85999.497    54.703623 
  626000    -1131.954    3656.8601    15391.477    4750.5164    171.22006   -96353.512    8642.4474   -87711.064     345.8621   -55.389377    101216.03   -119191.63   -87792.826    53.027361 
  627000   -1122.0604    3672.6808    15446.182    4817.4974    147.24408   -96287.414    8761.5562   -87525.858    350.62872    1337.1788    100731.77   -119248.96   -85561.449    53.600435 
  628000   -1211.6749     3726.189    15491.622    4767.7609    175.16984    -96310.26    8673.2753   -87636.985    347.09581    101.58955    101393.16   -119259.33   -87486.763    53.909838 
  629000   -1261.1352    3751.5814    15405.906    4836.9195    161.84897    -96285.13    8806.8798   -87478.251    352.44252   -575.94313    100538.33   -119180.25   -88322.726    53.666852 
  630000   -1143.1968    3691.5927    15326.732    4776.0849    173.81131   -96413.993    8754.3374   -87659.656    350.33983    512.01916    101161.35   -119239.02   -86904.256    54.323555 
  631000   -1106.7575    3667.7707     15428.71    4837.6331    164.00154   -96265.466    8757.7244   -87507.741    350.47537    1999.7823    100917.47   -119256.82   -84564.506    54.616071 
  632000   -1093.2843     3768.598    15426.705    4751.4001     179.9759   -96198.972    8639.8969   -87559.075    345.76003     1602.473    101358.15   -119232.37   -85190.292    54.130337 
  633000   -1132.6797    3694.5539    15251.208    4799.7493    151.41886   -96491.898    8808.5594   -87683.339    352.50974   -136.73333    101229.87   -119256.15   -87885.203    53.506709 
  634000   -1154.5757    3652.1245    15392.453      4821.75    152.66115   -96404.909     8728.685   -87676.224    349.31324      499.217    100897.47   -119269.32   -86941.633    53.423578 
  635000   -1127.5143    3723.1341    15441.435    4826.8599    160.47738   -96221.705    8782.7851    -87438.92    351.47828    705.94929    101131.75    -119246.1   -86397.713    53.268428 
  636000   -1154.7102    3725.0829    15330.811    4830.9199    170.44586   -96333.352    8840.9503   -87492.401    353.80599    710.29951     100825.4    -119235.9   -86447.952    52.338083 
  637000   -1178.7364    3640.0972     15336.06    4817.8069     162.1303   -96471.366    8753.2145   -87718.152    350.29489    1541.9391    100646.53   -119248.72   -85454.853    52.355717 
  638000   -1190.8692    3822.9578    15440.352    4768.4883    160.61751   -96251.393    8745.7919   -87505.601    349.99785    512.17326    100889.96   -119252.94   -86752.002    53.815304 
  639000   -1154.1671    3593.5843    15477.593    4810.0194    165.92115   -96387.166    8846.8043   -87540.362    354.04026    1700.9664    100723.39   -119280.12   -85041.732    53.256241 
  640000   -1178.2045    3614.5364    15466.594         4833    177.64359    -96343.56    8739.6676   -87603.893    349.75276    1112.6943    100322.96   -119257.13   -85975.901    53.173716 
  641000    -1158.064    3690.5094    15458.921    4874.1585    159.40983   -96225.269    8637.7345   -87587.534    345.67349    1741.0643    100387.42    -119250.2   -85038.533    52.187464 
  642000   -1179.2389    3719.4943    15372.911    4867.0807    174.23052   -96333.994     8763.815   -87570.179    350.71911    1427.3514    99799.117   -119288.47   -85492.715    52.771713 
  643000   -1226.9116    3648.0952    15406.873    4870.1901    164.03922     -96382.8    8700.5399    -87682.26    348.18691    1404.6222    99527.972   -119245.09   -85643.432    53.499496 
  644000   -1207.6148    3660.7681     15439.35    4844.3986    159.03864   -96369.204    8645.7111   -87723.493    345.99271    1769.2769    100516.53   -119265.14   -85129.856    53.223556 
  645000   -1192.5398    3640.9788    15443.781    4820.4845    158.05443   -96387.961    8691.0959   -87696.865    347.80897    1893.4098    99795.867   -119258.72   -84941.158    53.100792 
  646000   -1199.3553    3648.8251    15521.597    4856.1992    174.85095   -96218.337    8701.1384   -87517.198    348.21086    1136.7049    100506.68   -119220.45   -85851.031    52.828914 
  647000   -1139.1188    3770.3498    15350.582    4766.2453    172.13609   -96299.417    8738.1323   -87561.284    349.69132    426.22585    101163.49   -119219.61   -86932.445    53.273207 
  648000    -1127.138    3728.8814    15395.941    4770.8061    165.28483   -96348.099    8801.0994       -87547     352.2112    1883.7247    100019.73   -119281.87   -84799.238    53.033016 
  649000   -1102.8872    3698.4489    15285.573    4743.2373    178.45441   -96414.408    8664.8229   -87749.585    346.75755    2309.5838    101179.26   -119217.23   -84341.572    52.657545 
  650000   -1102.3236    3750.4497    15394.074    4800.1867    163.98899   -96275.549    8679.8459   -87595.703    347.35875    917.87857     101767.7   -119281.92   -86233.408    52.639007 
  651000   -1091.8227    3703.0068    15496.264    4802.8549    170.99237    -96137.98    8634.7594   -87503.221    345.55444    416.24403    101550.01   -119219.28   -86886.762     52.74137 
  652000   -1200.4312    3593.8346    15352.166    4902.5059    176.21337   -96417.942    8750.5959   -87667.346     350.1901     1106.785    100088.79   -119242.23    -86051.78     53.91552 
  653000   -1195.7686    3644.6209    15416.929     4850.984    157.08204   -96374.578    8601.7908   -87772.787    344.23506    232.17978    100759.48   -119248.42   -87431.605    53.189764 
  654000   -1099.4208    3623.5304    15313.239    4849.0588    169.65725   -96411.282    8879.4521    -87531.83    355.34679    596.86425    101239.77   -119267.35   -86650.573    54.121129 
  655000   -1160.2592    3742.3873    15415.328    4809.7805    167.42078   -96279.069    8750.1387   -87528.931     350.1718    728.19174    100340.15   -119253.73   -86463.325    53.449551 
  656000   -1123.7655    3646.7907    15376.895    4744.1753    156.01333   -96479.331    8705.0232   -87774.308    348.36632    2196.3843    100115.87   -119279.44   -84567.395    53.929466 
  657000   -1174.1504    3717.1751     15395.89     4845.484    165.31632   -96272.465    8545.0708   -87727.394    341.96519    1205.5966    100347.34   -119222.18   -85963.048    53.802471 
  658000   -1115.2314    3696.8187    15305.524    4782.6033    170.83083   -96399.571    8823.0746   -87576.496    353.09062    1345.8912    101593.66   -119240.12   -85582.371     53.87626 
  659000    -1185.003    3755.5605    15400.008     4912.742    156.79612   -96242.024    8752.9031   -87489.121    350.28243    697.96961    100931.27   -119282.13   -86461.725    53.642068 
  660000   -1137.2439    3598.6688    15340.318    4902.3508     152.8107   -96337.663    8906.5428    -87431.12    356.43093    503.16228    101036.35   -119194.57   -86689.704    53.201906 
  661000   -1189.8118     3668.258     15506.39    4822.4533    158.66727   -96312.706    8783.4357    -87529.27    351.50431    1108.1681    101217.42   -119278.66   -85893.446     53.59635 
  662000   -1124.1103    3622.7258    15425.867    4757.0262    148.23645   -96370.807    8797.6961   -87573.111      352.075     1452.463    100948.11   -119200.55   -85434.759    53.548765 
  663000   -1147.7509    3777.2897    15396.366    4834.9547    162.83324   -96219.945    8696.0648   -87523.881    348.00782     870.3397    101922.92   -119243.64   -86230.172     53.01439 
  664000   -1112.1517    3651.7105    15433.216    4760.9504    172.69602   -96319.934    8572.6659   -87747.268    343.06951    551.33224    101111.59   -119226.35   -86934.268    51.530835 
  665000   -1205.7258    3821.6438    15421.098    4788.8681    173.30928   -96290.139     8803.398   -87486.741    352.30318    156.97155    101210.34   -119289.33   -87255.043    53.035042 
  666000   -1161.8488    3702.6126    15341.718    4821.6345    166.84293   -96380.492    8582.3477   -87798.144    343.45697     311.4018    100794.04   -119251.45    -87340.39    52.944024 
  667000   -1160.9115     3676.638    15444.091    4808.9517     169.8753    -96325.65    8781.7284   -87543.922    351.43599   -44.178609     101202.5   -119264.29   -87609.127    52.778611 
  668000    -1136.075     3671.818    15499.893    4783.0101    179.00432   -96233.157    8799.0105   -87434.147     352.1276    1391.5497    100359.96   -119230.81   -85397.409    52.477013 
  669000   -1142.6011    3624.6445    15386.399    4784.3054    158.44984   -96384.811    8788.6916   -87596.119    351.71465    2554.9728    101304.06   -119196.01   -83821.362    53.051107 
  670000   -1182.1887    3750.1893     15444.94    4791.8974    170.84831   -96306.174    8698.1574   -87608.017    348.09156    565.92522    101429.41   -119281.86   -86770.875    53.314567 
  671000   -1170.3625    3584.1559    15411.597    4848.7002    158.53893   -96391.501    8862.0516    -87529.45    354.65044     1956.609    100334.73   -119224.13   -84666.385    52.670491 
  672000   -1120.7269     3669.912    15388.012    4748.7804    170.94207   -96376.803    8655.5948   -87721.208    346.38825    659.28709    102115.34   -119233.72   -86739.367    53.550359 
  673000   -1212.3401    3686.5761    15370.285    4821.2251    145.64357   -96413.994    8810.5472   -87603.446    352.58929    363.91716    101166.24   -119225.38   -87066.521      51.6322 
  674000   -1112.0117    3687.0402    15581.278    4799.6726    173.83482   -96154.643    8738.7698   -87415.873    349.71683    1231.4884    100881.33   -119284.46   -85604.045    53.879116 
  675000   -1099.1059    3646.3095     15507.65    4715.3033    176.33847   -96298.558     8771.137   -87527.421    351.01213    2097.9926    101116.95   -119245.05   -84433.538    52.049206 
  676000   -1156.3919    3694.6048      15459.9    4759.1297    163.03484   -96372.339    8790.3364   -87582.002    351.78047    556.79653     100418.5   -119292.62   -86766.573    52.907942 
  677000   -1140.0211    3669.9089    15419.428    4767.3494    158.96026     -96375.8    8704.9116   -87670.889    348.36186     1286.819    100456.62   -119251.43   -85785.626    52.808326 
  678000   -1117.4022    3654.0345    15389.861     4736.991    177.52252   -96385.724     8716.908   -87668.816    348.84194    1819.3576    100964.44   -119226.73   -84989.879    52.625793 
  679000    -1128.653    3728.9797    15448.614    4783.0967    176.00146   -96230.948    8938.5225   -87292.425    357.71073    134.10311    101294.27   -119238.99   -87094.318    54.317119 
  680000   -1195.6644    3643.6228    15457.316    4841.9607    165.58653   -96352.692    8712.6375   -87640.054    348.67104     531.2683    100100.28   -119265.51   -86864.477    52.711031 
  681000   -1103.6165    3655.6611     15470.52    4723.0009    171.65558   -96334.435    8719.6242   -87614.811    348.95064    614.03191    101557.07   -119251.66   -86705.365    53.261824 
  682000   -1165.9312    3689.7242    15309.624    4811.2819     165.9603   -96420.007     8699.493   -87720.514    348.14501    2106.5427    101557.01   -119230.67   -84600.503    52.520655 
  683000    -1120.832    3597.7511    15417.551    4794.1696    165.12265   -96353.456     8822.114   -87531.342    353.05218    1619.8186     101220.5   -119207.22    -85140.17    52.949386 
  684000   -1127.7147    3717.0024    15346.523    4820.2446    158.68108   -96304.412    8669.5187   -87634.894    346.94547    169.88176    101495.38   -119219.15   -87383.434    53.371647 
  685000   -1135.0307    3657.6065    15391.956    4758.7955    165.67588   -96415.954    8820.1653   -87595.789     352.9742     594.4444     101102.1   -119254.96   -86719.298    53.232241 
  686000   -1081.6217    3693.7788    15389.102    4750.8823    161.00552   -96327.392     8777.438   -87549.954    351.26429    1945.2605    101304.88   -119240.54   -84675.972    53.005325 
  687000    -1125.564    3670.3604    15398.683    4771.5007    153.74818    -96361.88    8730.3096    -87631.57    349.37826    1302.5138    101010.36   -119230.61   -85712.795    53.604018 
  688000   -1191.5631    3787.2803    15404.718    4760.6434    169.46364   -96370.142    8772.1943   -87597.948    351.05444    132.58639    101136.28   -119300.68   -87402.387     52.65132 
  689000   -1139.6892    3614.8777    15427.619    4717.1158    172.17164   -96423.153    8752.9406   -87670.213    350.28393    1279.8852    100904.02   -119215.25   -85786.757    53.147521 
  690000   -1133.1062    3768.8468    15365.323    4824.3161    146.60857   -96283.038     8781.075   -87501.963    351.40984    1119.4825    100599.26   -119255.03   -85859.529    52.804011 
  691000   -1100.1657    3706.2562    15327.566     4762.516    159.77311   -96379.118    8754.8655   -87624.253    350.36096     1085.479    100417.03   -119235.06   -86034.591    53.326667 
  692000   -1159.3062    3705.5193    15364.524    4826.4193    167.18774   -96352.199    8921.6225   -87430.576    357.03441    1699.1144    100668.77   -119256.54    -84936.02    52.856047 
  693000   -1190.0842    3690.0195    15381.025    4824.9984    166.87754   -96361.004    8746.8111   -87614.193    350.03863    868.85092    100559.55   -119233.84   -86339.973    52.987142 
  694000   -1144.9288    3735.7903    15336.942    4845.8375    189.73698   -96319.464    8662.8885   -87656.576    346.68014    252.68572    101668.89   -119282.84   -87281.909    53.947626 
  695000   -1155.7835    3768.5529    15390.922    4771.2162    180.25437   -96341.067    8915.4706   -87425.596    356.78822    487.57828    101412.69   -119296.23   -86704.468    53.488636 
  696000   -1107.8934    3765.7348    15263.756    4833.5242     163.9948   -96315.253    8792.1286   -87523.124    351.85219    1270.6727     100738.8   -119234.37   -85656.287    53.512106 
  697000   -1071.8834    3668.0951    15317.625    4676.1739    147.86001   -96475.366    8753.0009   -87722.365    350.28634    1240.1146    101825.74   -119213.24   -85880.765    53.883462 
  698000   -1158.8978    3668.7542    15345.363    4825.3063    161.89666   -96423.688    8739.8959   -87683.792    349.76189    1301.5442    100888.63   -119266.11   -85768.755    53.943651 
  699000   -1142.8731    3750.1381    15375.119    4847.1289    166.10704   -96223.954    8864.0238   -87359.931    354.72937    1061.5017    101431.74   -119219.57   -85789.674    53.500131 
  700000   -1197.9832    3667.0325    15350.741    4858.4115    164.32654   -96407.952    8903.9948   -87503.957    356.32897    1718.8941    99752.585   -119250.48   -85003.328     53.23381 
  701000   -1086.5413    3676.9075    15379.069    4822.3595    180.14118   -96254.643    8714.4533    -87540.19    348.74371    1721.1433    101207.64   -119226.58   -84999.766    53.344084 
  702000   -1083.9497    3621.5179    15374.682    4850.1867    173.60894   -96293.895    8665.8708   -87628.024    346.79948    2513.6261    101115.55   -119229.94   -83921.264    53.537071 
  703000   -1130.7146    3691.6928    15500.927     4812.007    168.91243   -96222.621    8776.2643   -87446.357    351.21732    485.62996    100812.07   -119265.45   -86732.364    53.236118 
  704000   -1068.2287    3696.5119    15367.431    4804.8372    161.19575   -96333.939    8698.3785    -87635.56    348.10041    1312.6631       101403   -119295.69   -85694.317    53.069086 
  705000   -1089.6856    3749.0249     15427.13    4784.3672    167.51208   -96196.212    8752.0158   -87444.196    350.24692    888.85406    102807.81   -119234.56   -86111.496    52.999996 
  706000   -1101.8164    3588.8168     15462.24    4789.3333    168.09095   -96335.852    8754.1032   -87581.749    350.33046    2484.4323    101022.08   -119242.52   -83921.426    53.043951 
  707000   -1188.8021    3596.1682    15393.074     4822.066    166.07595   -96413.952    8880.2114   -87533.741    355.37718    1970.8196    101219.84   -119202.53   -84624.442    53.190256 
  708000    -1120.684    3551.8539    15346.102    4780.9842    160.07789   -96493.727     8701.069   -87792.658    348.20808    613.89801    101557.39   -119212.06   -86883.407    54.035188 
  709000    -1150.005    3621.7948    15427.397    4713.3248    160.51402   -96433.208    8843.0109   -87590.197    353.88845    1638.9629    101936.53   -119206.23    -85153.65    52.385052 
  710000   -1194.8589    3639.1828    15449.746    4856.1504    182.08015   -96321.042    8701.4667   -87619.576    348.22399    504.49347    100654.14   -119253.34   -86879.011    52.874191 
  711000   -1223.7557    3693.3263    15395.443    4920.4203    157.47889   -96300.727    8710.4884   -87590.238    348.58503    1879.3006    100015.11   -119243.64   -84849.057    52.798466 
  712000   -1105.4542    3726.3847    15304.018    4806.6682    159.30807   -96374.325    8784.4624   -87589.862     351.5454     517.2335    100851.24   -119265.25   -86829.109    52.453505 
  713000   -1155.2448    3695.6473    15429.201    4871.3818    174.30163   -96257.192    8614.8258   -87642.366    344.75672    1898.3314     100719.8   -119272.48   -84853.916    52.771763 
  714000   -1164.8798    3723.5193    15449.288    4836.5149    162.55591   -96256.414    8702.6225   -87553.791    348.27025      1041.67     101250.3   -119263.41   -86015.628    53.552097 
  715000   -1191.2618    3745.6692    15381.552    4867.5503    170.02643   -96274.785    8827.2014   -87447.584    353.25577    1361.7998    100869.08   -119248.32   -85444.278    52.773017 
  716000   -1168.3267    3635.8211    15497.697    4830.1301    167.08238   -96291.656    8590.7822   -87700.874    343.79451    512.07542    100864.56   -119254.06   -86947.608    54.098649 
  717000   -1201.0119    3668.1059    15298.697    4906.4946    185.50527   -96347.752    8801.2174   -87546.534    352.21592    862.62971    101310.19   -119205.54   -86271.994    52.415849 
  718000   -1103.5326    3777.0401    15376.636    4868.9864    168.99159   -96211.019     8891.885   -87319.134    355.84435    1439.1215    101397.52   -119299.14   -85190.992    52.637075 
  719000   -1153.9676    3686.0041    15408.863     4846.503    165.09734   -96274.285    8681.0441   -87593.241     347.4067    942.69715    100499.29   -119226.78   -86211.549    53.807526 
  720000   -1141.5881    3647.5431    15417.212    4847.8265    165.96984   -96359.573    8836.2984   -87523.274    353.61983    2009.7813    101606.91   -119296.54   -84545.115    53.239538 
  721000   -1134.3076     3568.434    15427.956    4789.3478    168.21265   -96354.873    8838.8458   -87516.028    353.72177    887.35429    101244.61   -119174.52   -86205.806    54.825229 
  722000   -1186.2355    3737.6307    15378.761    4873.9656    162.21205   -96277.321    8680.6121   -87596.709    347.38942    486.88759     101375.1   -119243.65   -86876.869    54.542195 
  723000   -1167.3205    3702.4396    15374.976    4853.4454    146.92869    -96305.58    8690.1542   -87615.426    347.77128    1004.9377    100331.18   -119216.05   -86144.973    54.932792 
  724000   -1213.5754    3701.5948    15442.571    4907.8006     155.9584   -96313.043    8826.5237   -87486.519    353.22865    1602.9656    100561.53   -119307.39   -85135.631    54.271012 
  725000   -1188.5939    3644.4284    15400.073    4848.8833    157.63638   -96325.739    8566.7641   -87758.975    342.83333    903.59288    101414.56   -119188.17   -86422.537     54.23427 
  726000   -1185.2638    3686.3118    15444.744    4857.2461    162.25766   -96318.697    8738.6858   -87580.011    349.71347    1018.6177    100933.98   -119283.99   -86080.587    54.236111 
  727000   -1195.0531     3741.785    15556.879    4876.3583    182.51098   -96082.124    8780.1353   -87301.989    351.37223    1533.3781    100765.68    -119244.6   -85048.591    53.825949 
  728000   -1168.5423    3654.3489    15279.114    4924.1365    167.99574   -96368.385    8786.9963   -87581.388     351.6468    846.33976    101308.69   -119225.44   -86330.935    54.102138 
  729000   -1186.6331    3636.0113    15447.606    4902.4621     152.1618   -96291.218    8638.7213   -87652.497    345.71299    738.12669    100650.74   -119242.83    -86569.01    54.612271 
  730000   -1127.4446    3719.8229    15407.428    4790.3743    159.94662   -96293.286    8847.9128   -87445.373    354.08462     827.0865    101734.36   -119243.41   -86218.232    53.922792 
  731000   -1112.7832    3677.6797    15269.281    4838.5892    180.57278    -96396.61    8864.5352   -87532.075    354.74983    1184.2116    101540.39   -119249.95   -85778.421    54.620543 
  732000   -1135.3213    3675.7029    15320.568    4834.4058    172.44998    -96384.17    8738.1719   -87645.998     349.6929    1769.3192    101098.72   -119251.98   -85037.276     54.32779 
  733000   -1161.5993    3782.9439    15426.299    4769.0645    164.61369   -96239.488    8639.5478    -87599.94    345.74606    2027.1127    100882.81   -119220.81   -84617.505    53.887785 
  734000   -1134.4795    3679.7104    15516.327    4838.9314    172.65229   -96166.246    8611.6923   -87554.554    344.63131    1553.3907    100998.58   -119239.39    -85266.47    54.012351 
  735000   -1141.1435    3618.0126     15402.14    4869.7886    152.29914   -96347.624    8797.3472   -87550.277    352.06104    1683.4831    101259.11   -119248.72   -85064.176     54.41141 
  736000   -1188.3677    3647.4808    15419.939    4897.0602    171.42572   -96326.606    8608.0287   -87718.577     344.4847    1173.4972    100329.29   -119274.14   -86001.516    53.842596 
  737000   -1138.8342    3692.7516    15478.403    4871.8994    181.08126   -96186.619    8677.1305   -87509.488    347.25009    461.81222     101331.8   -119271.92   -86827.013    53.499856 
  738000   -1140.5526    3641.8057    15369.846     4921.599    173.65429   -96308.207    8662.1791   -87646.027    346.65175    2166.5044    100670.02   -119274.56   -84465.233    54.473533 
  739000   -1155.0554    3664.8966    15392.731    4865.3133    162.35035   -96383.062    8804.9286   -87578.134    352.36444    1524.2464    100992.36    -119313.3   -85333.117    52.869673 
  740000   -1148.2639    3708.3529    15420.242    4891.0449    162.41924   -96248.243    8680.1758   -87568.067    347.37196    753.76888    100689.33   -119282.04   -86461.195     53.01764 
  741000   -1100.3875    3640.0859    15468.304    4899.2234    153.07074   -96231.735    8753.0172   -87478.718    350.28699    1702.4816    100724.76   -119292.03   -84977.828     53.36501 
  742000   -1138.3579    3695.7326    15481.605    4876.7718    159.52162   -96227.503    8740.6142   -87486.889    349.79064    891.79505    101533.09   -119302.78   -86166.358    53.855334 
  743000   -1170.0733    3697.5205    15458.648    4808.0987    184.18412   -96262.008    8747.6855   -87514.323    350.07362    229.94332    101150.81   -119240.39   -87175.115     54.34489 
  744000   -1145.1454    3834.6061    15380.957    4830.3156    166.50329   -96141.609    8815.6862   -87325.923    352.79495    809.36132    101141.32   -119208.85   -86132.081    53.774077 
  745000   -1218.4909    3712.6264    15396.989    4874.2342    165.55564   -96330.171    8679.5424   -87650.629    347.34661    681.77375    101000.64   -119261.09   -86646.382     54.08961 
  746000   -1150.3701    3695.3281    15425.926    4901.5688    156.84836   -96208.719    8616.2813   -87592.438    344.81496    1136.6088    100481.01   -119238.02   -85926.837    52.617378 
  747000   -1129.9453    3682.0045     15469.92    4794.0414     182.8797   -96245.976    8804.2773   -87441.699    352.33837    1592.9455    100651.04   -119244.88   -85103.427     53.33613 
  748000    -1180.257    3707.2465    15423.834     4792.933    153.31453   -96365.868     8484.811   -87881.057    339.55365    1130.4053    100727.61   -119262.94   -86220.482    53.273099 
  749000   -1223.6207    3780.3361    15357.857    4849.2084    172.20047   -96314.938    8817.4859   -87497.452    352.86697    2000.4735    100290.96   -119250.92   -84571.478    52.687616 
  750000    -1199.288    3758.6222    15384.361    4894.2002     157.8683   -96233.812    8763.9804   -87469.831    350.72573    2001.2636    99971.807   -119229.58   -84552.017     53.13251 
  751000   -1168.7296    3650.1273     15371.03    4874.7635    177.29887   -96302.245    8606.7488   -87695.496    344.43348   -249.94143    100992.41   -119206.74   -88063.628    53.792871 
  752000   -1184.9164    3785.1017    15419.045    4852.4152    164.01855   -96224.381    8691.7387   -87532.643    347.83469    1601.4662    100545.21   -119260.05   -85184.335    52.265582 
  753000   -1143.8796    3781.7596    15493.294    4793.1327    165.07942    -96201.56    8709.1893   -87492.371    348.53305    1402.7327    100696.61   -119290.95   -85432.378    53.463687 
  754000   -1111.9704    3725.5432    15346.223     4820.247    161.46947   -96306.987    8759.3229   -87547.664    350.53934    310.99489    102089.76    -119248.5   -87084.632    53.069912 
  755000   -1127.1296    3752.4569     15398.33    4830.7675    167.90367   -96192.832    8715.7899   -87477.042    348.79719    1861.0479    101084.25   -119215.16   -84733.467     53.44404 
  756000   -1159.4847    3693.6263    15411.622    4764.6504    171.69168   -96366.566    8603.1065    -87763.46    344.28772    136.93365    101778.31   -119248.67   -87560.205    52.673072 
  757000   -1125.6211    3690.1466     15480.14    4835.5978    174.37798   -96195.265    8772.8218   -87422.443    351.07956    2249.0476    101329.25   -119249.91   -84098.838    54.381051 
  758000   -1169.8832     3723.393    15369.823    4860.6554    158.02988   -96370.104    8721.2216   -87648.883    349.01457    1500.8128    101321.07   -119312.12   -85431.186    53.352811 
  759000   -1195.2708    3785.1879    15309.322    4872.3117     165.8579   -96336.202    8916.3739   -87419.828    356.82437    300.43388     100938.5   -119273.61   -86977.564    53.601895 
  760000   -1227.3112    3726.8354    15505.386    4880.7002    166.72846    -96160.38    8668.2633   -87492.117    346.89523    27.039679    100643.15   -119212.72   -87452.428    52.208871 
  761000   -1202.5446    3704.7843    15448.951    4817.0846    170.31745    -96313.85    8695.6089   -87618.241    347.98957    573.80299     100764.2   -119252.44   -86775.013     53.07555 
  762000   -1160.7236    3691.0107    15402.501     4855.603    164.80882   -96291.716    8807.5475   -87484.169    352.46924    308.67908    101357.47   -119244.92   -87027.881    53.569304 
  763000   -1235.6898    3621.3872    15481.163    4870.3493    176.69459   -96378.055    8725.2221   -87652.833    349.17466     98.59148    100708.35   -119291.96   -87508.029     53.19274 
  764000   -1211.9057    3730.8703    15501.262    4857.9474    170.90507   -96232.552    8655.7942   -87576.757    346.39623    524.89022    100493.44   -119281.63   -86807.482     52.14248 
  765000   -1097.1624    3677.7669    15406.115     4765.869     185.3182   -96280.126    8768.5479   -87511.578    350.90852    1234.7645    100607.21   -119218.03   -85699.867    52.806752 
  766000   -1134.5232    3606.9027    15388.773    4839.7284    178.45641   -96375.711    8785.7497   -87589.961    351.59692    1546.7947     101117.7   -119255.05   -85308.906     53.32311 
  767000   -1135.1367         3770    15471.968    4839.3008    173.01246   -96133.807     8749.295   -87384.512    350.13803   -250.65892    100873.13   -119252.95   -87753.264    53.734081 
  768000   -1135.7306    3707.0469    15499.276    4820.2841    155.82978   -96181.847    8676.9518   -87504.895    347.24293    850.23505    101043.29   -119228.55   -86251.977    52.643337 
  769000   -1142.0954    3584.6818    15317.048    4850.7379    163.55834   -96522.342    8677.6386   -87844.703    347.27042    1856.9419    100284.15   -119296.27   -85128.849    53.579146 
  770000    -1113.021    3645.1686    15393.376    4791.3875    185.32759   -96399.298    8764.6573   -87634.641    350.75282    1017.8465    100850.24   -119301.54   -86137.595    53.110812 
  771000   -1160.1979    3615.7997     15540.29    4843.2768    153.07767   -96261.794    8679.1843    -87582.61    347.33228    1060.9358    101174.47   -119254.04   -86017.172    53.098908 
  772000   -1209.1419    3649.8679    15382.558    4875.8814    176.52142   -96377.649    8826.4898   -87551.159     353.2273    1364.8153    100311.88   -119253.34   -85554.508    52.903461 
  773000   -1121.5133    3531.4578    15379.668    4834.9677    164.50507   -96463.817    8734.4731   -87729.344    349.54488    1968.0669    100841.58    -119252.9   -84834.966     53.52148 
  774000   -1209.3259    3762.5308    15478.542    4815.0682    163.30414   -96174.807    8800.0689   -87374.738    352.16996    1656.0627    100002.14   -119184.93   -84959.489    53.300557 
  775000   -1211.7192    3630.5041    15381.294    4894.4116    150.87931   -96414.318    8777.3562   -87636.962    351.26102     1428.445    100593.31   -119259.69   -85541.361    52.447673 
  776000   -1159.2469    3668.2835    15462.665    4836.4644    175.32388   -96265.063    8810.5202   -87454.543    352.58821    1389.1074    101060.79   -119248.55   -85407.182    53.256008 
  777000   -1143.8282    3644.3003    15354.912    4816.6592    161.19604   -96393.098    8711.5602   -87681.537    348.62793    1087.9702    100801.33   -119226.34    -86082.13    52.743326 
  778000     -1172.98     3707.167    15463.085    4883.7999    169.33569   -96212.715    8837.9663   -87374.749    353.68657    1699.3598    100623.25   -119263.12    -84880.96    52.933035 
  779000   -1159.2387    3696.1708    15388.061     4797.925    188.38443   -96332.081     8656.691    -87675.39    346.43212    141.54905    101407.38   -119243.38    -87466.05    52.063581 
  780000   -1135.0065    3737.7458     15363.77    4843.0288    171.60303   -96225.059    8675.2439   -87549.815    347.17458    1510.6039    101602.13    -119206.2   -85311.459    53.232113 
  781000   -1191.6589    3656.6638    15414.848    4861.2813    176.32315   -96319.142    8814.2123    -87504.93    352.73596     2196.671    99824.213    -119236.6   -84306.942    52.835588 
  782000   -1123.0774    3701.2246    15330.519    4837.9452    188.39644   -96333.322    8686.0003   -87647.322    347.60505    628.79676    101343.94   -119268.33   -86717.962     52.34522 
  783000   -1189.4404    3622.4201    15434.635    4866.5277    163.49281   -96306.412    8781.6188   -87524.793     351.4316    782.55931       101174   -119204.05   -86370.112     53.42029 
  784000   -1103.0018    3707.6666    15487.569    4729.4611    159.55054   -96247.793    8794.5113   -87453.281    351.94755    870.71788     101898.8   -119229.04   -86159.317    51.394053 
  785000   -1110.2209    3713.0928    15408.557    4789.2148    172.76039   -96291.875    8714.4162   -87577.459    348.74222    180.65444    100676.22   -119265.28   -87312.211     52.44454 
  786000   -1164.5848    3684.2664    15394.706    4761.8392    162.76029   -96339.513    8736.1227    -87603.39     349.6109    713.52467    101244.61    -119178.5   -86549.836    53.126835 
  787000   -1180.8711    3644.9274    15379.241    4783.5667    173.15742    -96453.19    8862.1159   -87591.074    354.65301    527.31174    101136.41   -119253.21   -86813.305    52.997555 
  788000   -1154.7916     3726.475    15342.025     4820.194    170.00962   -96352.135    8592.6733   -87759.462    343.87019    344.37732    101490.88   -119256.05   -87249.735    54.105448 
  789000   -1218.6946     3733.703    15498.778    4817.8385    174.51073   -96238.521     8727.035   -87511.486    349.24721   -533.63591    100438.81   -119244.66   -88293.154     52.40247 
  790000   -1161.3482    3640.9533    15388.181    4776.6221     165.6428   -96414.077    8679.1114   -87734.966    347.32936    790.93705    100804.48   -119224.13   -86572.186    52.319406 
  791000   -1149.7641    3711.9467    15337.006    4829.3423     169.1663   -96297.176    8759.6214   -87537.555    350.55129    2031.7156    101071.71   -119194.87   -84542.751    53.685744 
  792000   -1216.7366    3558.7935    15377.765     4816.965    170.76506   -96529.879    8801.6201   -87728.259    352.23203    1329.3009    99927.998   -119237.43   -85791.005    52.682728 
  793000   -1181.8219    3744.4612     15366.69    4815.4551    169.59651   -96366.572    8832.8194   -87533.752     353.4806    336.84768    100748.55   -119280.95   -87038.817    53.353218 
  794000   -1156.3553    3683.6451    15401.292    4810.4014    157.66054   -96384.467     8825.018   -87559.449     353.1684    1138.5517    101110.06   -119281.11   -85880.556    52.937816 
  795000   -1162.5557     3593.096     15395.02    4845.1323    179.85444   -96384.178    8771.3034   -87612.875    351.01879     785.6151    100411.68   -119234.73   -86462.419     52.36308 
  796000    -1164.796    3678.4336    15441.219    4835.5683    174.07734   -96273.261    8837.8768   -87435.385    353.68299    2239.9635    101588.72   -119237.76   -84116.728    53.001954 
  797000   -1213.3586    3676.7043    15497.259    4793.9814    162.03014   -96320.981    8711.9431   -87609.038    348.64325    715.93944    101128.36    -119237.6   -86553.132    52.872653 
  798000    -1210.748    3703.3116     15425.78    4788.0261    152.55137   -96355.198    8629.5875   -87725.611    345.34746    110.46165    100900.39   -119214.12   -87563.063    52.562796 
  799000   -1165.4596    3652.2511    15481.272    4764.9112    168.62425   -96343.482     8695.013   -87648.469    347.96573    977.28838    100991.95   -119245.08   -86209.056    52.719651 
  800000   -1160.3618    3669.9363    15439.894    4796.5072    172.67566   -96298.565    8767.8173   -87530.748    350.87928    541.31247    100847.14   -119217.22   -86734.612    51.493712 
  801000   -1161.4332    3734.3303     15360.98    4799.4753    164.03396   -96353.245     8635.476   -87717.769    345.58311    2824.7839    99537.628   -119250.63    -83617.16    51.705453 
  802000   -1225.8908    3769.6649    15496.275    4752.3886    152.83898   -96344.024    8872.6715   -87471.352    355.07544    984.22874    100180.56    -119289.3   -86033.364    51.235561 
  803000   -1148.3438    3699.6331    15535.093    4694.8278    173.72122   -96257.962    8766.0909   -87491.871    350.81019    1505.0218    100407.23   -119212.89   -85288.013    52.446932 
  804000   -1218.1471    3718.5572    15391.615    4830.9447    170.44668     -96348.2    8649.6693   -87698.531    346.15112    823.25202    101037.84   -119241.62   -86485.442    52.923718 
  805000   -1221.7301    3689.1728    15417.807    4743.4537    151.97053   -96435.235    8791.9928   -87643.242    351.84676   -96.461945    100682.34   -119215.91   -87784.882    51.874089 
  806000    -1219.088    3668.6584    15502.749    4785.6907    151.22101   -96384.511     8702.335   -87682.176    348.25874    966.06326    100974.95   -119273.74   -86259.536    51.547207 
  807000   -1144.7671    3767.4438    15383.345    4793.2041    186.63969   -96248.948    8769.0664   -87479.881    350.92927    1789.1102    101882.11   -119234.81   -84821.539    52.222318 
  808000    -1232.034    3633.5619    15440.264    4843.7927    150.00159   -96402.616    8803.0811   -87599.534     352.2905    419.05853    100822.22    -119238.2   -86983.356     53.11839 
  809000   -1143.5271    3666.7456    15404.946    4780.4756    151.95718   -96395.289    8627.2024   -87768.087    345.25201    831.74862    100896.77   -119255.89   -86544.189    51.967135 
  810000   -1259.7925    3660.8881    15435.931    4817.2734    176.28218   -96385.932    8796.0179   -87589.914    352.00784   -616.02305    100204.54   -119216.51   -88490.158    53.350539 
  811000   -1129.5756    3732.7039    15293.722    4774.2468    164.21083   -96406.785    8630.5289   -87776.256    345.38514    973.72662    100942.35   -119242.09   -86342.794    52.921517 
  812000   -1180.2714    3703.8273    15384.316    4811.0894     168.6478   -96347.829    8615.6151   -87732.214     344.7883    113.58152    101277.54   -119235.44   -87564.451    52.576772 
  813000   -1164.6678    3700.6976    15387.025    4746.7664    187.15168   -96369.405    8734.9468   -87634.458    349.56384     943.6858    101669.94   -119226.38   -86235.206    53.601026 
  814000   -1134.8431    3787.7995    15289.574    4860.4191    166.95443    -96312.55    8652.2066   -87660.343    346.25266    270.10999    100421.23   -119282.45   -87264.756    53.153228 
  815000   -1175.7791    3658.4433    15471.838    4811.2424    159.39361   -96356.568    8892.6467   -87463.922    355.87483    1852.4942    100131.47   -119281.71   -84758.697    52.267372 
  816000   -1138.7439    3761.7345    15441.744    4798.3951    165.36829   -96197.404    8834.8396   -87362.564    353.56145    838.69127    100974.73    -119225.9   -86127.497    52.778832 
  817000   -1117.4191    3682.9382    15444.486    4731.0844    158.53516   -96363.833    8702.8903   -87660.943    348.28097    962.31101    101687.14   -119263.46   -86233.833    52.764958 
  818000   -1087.1175    3655.7873    15401.372    4762.9991    164.89575   -96310.701    8662.1603   -87648.541    346.65099    1560.0026    101292.96   -119208.64   -85344.021    53.445192 
  819000   -1139.0607    3720.0947    15390.938    4781.9048    160.58011   -96325.937    8740.5864   -87585.351    349.78953    776.28965    101443.74   -119240.39   -86436.867    53.135025 
  820000   -1107.8155    3582.5313    15308.993    4822.3365    164.99429   -96447.653    8785.3304   -87662.322    351.58014    1942.7199    100996.24   -119218.69   -84800.839    52.548925 
  821000   -1096.9723    3727.9146    15398.901    4768.2497    167.39996    -96253.41     8778.712   -87474.698    351.31527    1586.1256    100636.69    -119218.9   -85146.768    53.359094 
  822000   -1172.1507    3692.0636    15386.088    4764.0051    152.06136   -96377.905     8738.722   -87639.183    349.71492   -70.707632    100715.55   -119199.97   -87743.041    53.612999 
  823000   -1052.7265    3627.7733    15413.359    4740.5293    164.67709   -96331.244    8584.6006   -87746.644    343.54713    2143.6218    101979.92   -119224.86   -84558.494    54.361358 
  824000   -1152.6196    3771.3877    15426.417     4768.237    178.78477   -96237.645    8727.4097   -87510.235    349.26221    872.26574     101787.8   -119229.85   -86215.382    54.305824 
  825000    -1183.487    3660.5427    15346.954    4723.0596     166.3071   -96513.691    8817.9738   -87695.718    352.88649    333.35788    100655.93   -119227.07    -87206.36    53.413114 
  826000   -1116.8711    3702.4077    15490.958    4738.2277    167.34681   -96222.151    8806.1052   -87416.046    352.41152    559.58034    101625.25   -119204.22   -86586.692    52.711667 
  827000   -1164.2145    3645.3425    15429.562    4802.2383    166.04793   -96372.268    8700.0306   -87672.238    348.16652    205.62482    101380.36   -119251.24   -87368.215    52.229159 
  828000   -1157.4992    3772.8991    15421.174    4819.0608    162.92355   -96223.464    8678.4553   -87545.009     347.3031    511.15302    101223.04   -119242.02   -86790.428    53.053238 
  829000    -1163.666    3671.7378    15401.873     4737.576    180.46062   -96408.755    8729.9989   -87678.756    349.36583     1638.815    100943.67   -119236.74   -85266.159    53.715391 
  830000   -1095.4297    3667.5802    15398.334    4768.7212    168.23228   -96343.508    8818.5882    -87524.92    352.91108    1110.6171    101155.37   -119250.95   -85886.485    53.464483 
  831000   -1103.3341    3717.5134     15392.73    4729.3785    171.91521   -96347.088    8761.8421   -87585.246    350.64016    1809.1604    101181.04   -119255.29   -84915.609    54.573681 
  832000   -1147.3866    3752.7242      15400.8    4799.9312    154.40302   -96316.089    8716.4122   -87599.677     348.8221    749.69369    99994.362   -119276.56   -86506.388    52.227582 
  833000    -1119.502     3767.907    15421.634    4664.1838    174.24747   -96291.778    8637.3647   -87654.413     345.6587    1058.9216    100846.51   -119200.25   -86097.012    52.310932 
  834000   -1167.6339    3642.9123    15324.358    4746.5383    165.95131   -96512.452     8748.216   -87764.236    350.09485    1727.8663    101175.48   -119224.58     -85214.7    54.034082 
  835000   -1102.9282    3675.6418    15379.717    4780.4988    156.04229   -96362.078     8810.297   -87551.781    352.57928    1341.1778    101280.64   -119251.05   -85570.761    52.849078 
  836000   -1133.3287    3654.7758    15451.386    4785.6273    164.72043   -96325.771    8642.6334   -87683.137    345.86955    1847.9839    101513.07   -119248.95   -84947.263    52.866837 
  837000   -1152.4465    3705.2261    15501.671    4816.5101    154.00694   -96205.661    8737.3642   -87468.297    349.66058    210.95831    101742.61   -119230.63   -87155.274    53.180417 
  838000   -1112.0412    3619.4853    15419.226     4803.346    187.30606   -96312.426    8777.3748   -87535.051    351.26176    703.24629    101792.58   -119229.75   -86491.053    52.234088 
  839000   -1115.7683    3645.4413    15483.055    4739.3888    175.33533   -96345.544    8592.3084   -87753.236    343.85559    629.38632    101671.79      -119273   -86819.995    53.019627 
  840000   -1164.5328    3747.9974     15446.31    4861.4383    155.52324   -96203.173    8707.7569   -87495.416    348.47572    2474.3787    100708.48   -119249.91   -83861.222    53.297287 
  841000   -1165.1053    3649.6168    15422.331    4829.4139    166.50415   -96330.011    8728.2681   -87601.742    349.29656    148.07081    101645.43   -119232.77   -87382.243    51.386125 
  842000   -1185.2849     3731.712     15391.97    4861.3835    178.56135   -96298.376    8775.2984   -87523.078    351.17867    1091.5964     100536.8   -119276.72   -85922.551    52.170316 
  843000   -1155.5873    3705.5039    15477.434    4727.3696    169.96757   -96349.384    8709.5891   -87639.795    348.54905    1071.7787    100999.85   -119274.07   -86061.087    52.850276 
  844000   -1156.3449    3690.3567    15390.405    4774.6788    170.29462   -96363.111    8853.0074   -87510.103     354.2885     1792.455    100445.14    -119232.5   -84884.355    54.104058 
  845000   -1171.6816    3716.8758    15337.525    4820.8988    169.76902   -96389.697    8793.9966     -87595.7    351.92695    1110.0709    100916.68   -119263.08   -85961.935    52.952951 
  846000   -1146.5803    3679.2227    15471.379     4818.493    166.97971   -96242.362    8627.5693   -87614.793     345.2667    1536.9984       100381   -119231.86   -85364.698    52.893434 
  847000   -1142.8139     3751.536    15384.986     4834.509    162.99513   -96289.791    8865.1129   -87424.678    354.77295     1252.333    101462.64      -119281   -85571.565    53.597071 
  848000   -1179.3779     3649.984    15438.469    4846.5285    159.79227   -96328.355    8735.2122   -87593.143    349.57446    1927.0204    100542.83   -119243.75   -84767.526    53.248808 
  849000   -1182.5702    3754.9567    15468.996    4922.8814    185.02023   -96130.991     8693.697   -87437.294    347.91306    793.88512     100167.1   -119280.28   -86277.559    53.329272 
  850000   -1104.6735    3678.2991    15455.152    4753.7463    176.64616   -96295.087    8834.8524   -87460.234    353.56196    611.50395       100951   -119254.26   -86559.937    53.024681 
  851000   -1159.5866    3656.3682    15355.008    4877.7266    164.07999   -96380.967    8836.8857   -87544.081    353.64333    680.79536    100695.49   -119274.56   -86544.305    52.948285 
  852000   -1166.0209    3749.9758    15399.962    4814.5589    165.00384   -96297.974    8794.9623   -87503.012     351.9656    19.581685    101663.71   -119261.45   -87473.979    53.453882 
  853000   -1130.0347    3697.1371    15377.082    4810.7887    150.45235   -96291.117    8716.3902   -87574.727    348.82122    910.67957     101315.7   -119196.54    -86229.12     53.55525 
  854000   -1166.2452    3740.8448    15458.932    4876.5518    162.88219   -96116.731    8724.5017   -87392.229    349.14583    1006.7937    100669.35    -119189.7   -85914.096    54.166269 
  855000   -1171.7379    3713.7407     15392.25    4797.7088    170.31633   -96326.053    8745.7839   -87580.269    349.99753    264.97729    101643.55   -119228.33   -87187.475    53.853115 
  856000   -1175.3853    3694.2489    15398.631    4783.2627    176.39305   -96379.119     8697.832   -87681.287    348.07854    383.31836    101332.55   -119256.27   -87114.807    53.645838 
  857000   -1199.7861    3608.0842    15370.984    4775.2861    171.01416   -96490.841    8696.6601   -87794.181    348.03164    1383.0223    101057.38   -119216.42   -85755.857    52.681976 
  858000   -1139.0424    3760.1702    15419.973    4775.6241    165.11569   -96225.994    8767.9941       -87458    350.88636    1438.3964    101586.85   -119207.83   -85326.958    53.144176 
  859000   -1129.5967    3740.0738    15419.444    4803.3553    181.54976   -96207.658    8812.3693   -87395.288    352.66221    1144.0577     100897.1   -119222.48    -85711.83    53.198363 
  860000   -1127.3677    3673.3039    15500.568    4724.1242    182.51803   -96276.195    8659.4845   -87616.711    346.54391    764.27305    100882.46   -119229.34   -86492.261     53.98301 
  861000   -1134.0324    3787.4739    15441.927    4806.0888    163.48289   -96196.284     8805.885   -87390.399    352.40271    1325.1643    101418.36   -119261.22   -85430.371    53.482605 
  862000   -1156.7722    3821.8763    15323.747    4803.6018    154.86555   -96316.064    8742.7937   -87573.271    349.87786    2141.2028     100872.2   -119263.38    -84423.31    53.615937 
  863000   -1180.5588     3829.636    15515.401     4898.516    175.72368   -96019.286    8900.6406   -87118.646    356.19474    858.61136    100544.99      -119258   -85859.625    52.357718 
  864000   -1206.7927    3681.4756    15344.834    4833.7322    160.84023   -96403.329    8714.5562   -87688.773    348.74782    1293.7208    100674.34   -119217.42   -85789.291    53.303782 
  865000   -1143.6821    3617.5167    15454.765    4773.1875    169.95364   -96335.692    8733.1768   -87602.515      349.493    734.19975    100805.83   -119207.43   -86523.131    52.570636 
  866000   -1181.1563    3805.3955    15504.846    4795.1588    178.38737   -96167.697    8700.2801   -87467.417    348.17651     641.5315    101128.27   -119270.33   -86521.253    53.164093 
  867000   -1201.6891    3720.6712    15458.511    4792.4176     157.5867   -96304.757    8600.9308   -87703.826    344.20065    928.15745    100060.71   -119232.25   -86349.382    52.594973 
  868000   -1165.2253    3682.1671    15386.251    4771.3296    163.86103   -96385.906    8829.7188   -87556.187    353.35652    407.23313    100998.94   -119224.29   -86956.347    53.990217 
  869000   -1176.8725    3785.4843    15320.334    4819.2458    158.17294   -96311.077    8666.1804   -87644.897    346.81187    732.63208     101137.3   -119217.44   -86564.276    54.191877 
  870000   -1176.9653    3659.6872    15393.182    4859.8096    172.12598   -96308.786    8778.3232   -87530.463    351.29971    412.71437    101568.47   -119216.63   -86919.121    53.457285 
  871000    -1122.781    3704.3559    15376.835    4760.4424     158.7025   -96340.284     8823.748   -87516.536    353.11757     202.2928    101543.96   -119217.84   -87216.957    54.163414 
  872000   -1162.3223     3574.733    15380.829    4863.5434    160.97996   -96374.094     8822.071   -87552.023    353.05046    1525.9468    100863.93   -119191.86    -85307.36    54.804434 
  873000   -1047.7565      3608.52     15274.07     4731.698     164.8545   -96556.076     8605.637   -87950.439    344.38899    546.01637    101553.53   -119287.46   -87141.759    54.135101 
  874000   -1158.0927    3728.7897    15354.752    4832.7455     177.1026   -96338.192    8806.9317    -87531.26     352.4446     1043.553    100746.32   -119273.49   -85997.987    52.647764 
  875000   -1116.0447    3702.4068    15315.394    4745.6771    174.48119       -96380    8719.5384   -87660.461    348.94721    1117.0779    101297.99   -119201.91   -86010.172    53.619461 
  876000   -1141.8766    3718.2465    15363.075      4805.62    161.49879   -96297.665    8646.6302   -87651.035     346.0295    900.68805    101530.64   -119204.23   -86317.368    54.162215 
  877000   -1179.0371    3753.6842    15327.464    4802.2184     159.6127   -96384.511    8856.7293   -87527.781    354.43745    1128.2596    100556.74   -119248.45    -85873.17     54.01719 
  878000   -1115.3351    3612.5297    15330.614    4827.6126    155.75316   -96402.599    8617.7038   -87784.896    344.87189    1133.0573    101127.22   -119213.77   -86113.821    52.249615 
  879000   -1154.1847    3613.3828    15383.533    4896.8468    169.53202   -96306.544    8754.8596   -87551.684    350.36073    1404.4048    100762.72   -119215.65   -85487.882    52.914457 
  880000   -1112.0471    3661.2735    15354.473    4758.2381    166.74678   -96410.619    8701.4076   -87709.212    348.22163    605.40032    101986.15    -119239.3   -86808.761    53.292116 
  881000   -1164.0994    3728.1867    15312.542    4891.8555    170.17926   -96319.015    8617.3167   -87701.698     344.8564    1133.0604    101257.92   -119257.68   -86028.459    52.958051 
  882000   -1137.6845    3637.9511    15337.539    4829.4419    168.72722   -96356.978    8692.1413   -87664.837     347.8508    905.69445    101384.96   -119192.95   -86325.681    53.266624 
  883000   -1142.7569    3794.7674    15410.538    4837.2543    177.70524   -96182.365    8597.3509   -87585.014    344.05739    938.69464    101127.37   -119259.87    -86200.59    54.213294 
  884000   -1114.0576    3671.7219    15384.296     4826.656     159.5416   -96341.817     8769.657    -87572.16     350.9529    1753.7636    102190.94   -119269.98   -84958.439     53.81866 
  885000   -1210.9562    3701.6966    15461.553    4840.3363    178.69192   -96233.009    8814.8419   -87418.167    352.76116   -86.720115    101442.96   -119204.33   -87546.464    53.402631 
  886000   -1067.7812    3716.8718    15392.095    4795.4605    189.68904    -96195.07    8650.0653   -87545.005    346.16696     347.4699    102625.09    -119221.4   -87024.953     53.83363 
  887000   -1083.8992    3571.6813    15382.026    4719.2969     159.5016   -96477.302    8733.3377   -87743.964    349.49944    1174.2972    101972.72   -119225.91   -85997.588     53.62744 
  888000   -1109.3152    3733.0527    15397.394    4766.9088    161.08251   -96265.226    8727.7957    -87537.43    349.27766    1170.7892    101713.36   -119214.35   -85800.699     52.93871 
  889000   -1133.6306    3707.7446    15399.144    4768.5727    153.16093   -96340.733     8719.959   -87620.774    348.96404    2.5186718    102276.85   -119235.72   -87617.017     53.30689 
  890000   -1110.0425    3630.6213    15380.224    4744.4678    174.47018   -96389.823    8781.7314   -87608.091    351.43611    626.94046    101709.94   -119209.56   -86678.129    53.603638 
  891000    -1117.375     3498.187    15344.304    4853.0683    166.53256   -96485.549    8696.9289    -87788.62     348.0424    1417.7618     101163.2   -119230.27   -85696.909    53.429698 
  892000   -1185.4498    3595.4672    15326.983    4831.9155    171.82343    -96509.82    8880.8426   -87628.978    355.40244    1317.3196    101300.88   -119250.56    -85682.81     53.40017 
  893000   -1127.2831    3733.8832    15362.185    4793.7748    171.58591   -96267.591    8710.1311    -87557.46    348.57073   -115.89734    101385.18   -119201.74   -87728.825    53.616123 
  894000   -1132.8416    3692.2833     15338.06    4776.2173    155.50077   -96447.616    8708.1167   -87739.499    348.49012    472.72592    101727.82   -119276.84   -87038.165    54.459305 
  895000   -1175.6747    3663.5784    15365.947    4858.5216    178.87418    -96327.61    8696.3526   -87631.257    348.01934    1260.1264    101006.42   -119218.86   -85774.996    52.110322 
  896000   -1150.2651    3696.5223    15432.097    4839.4406    177.22673   -96289.929    8803.2528   -87486.676    352.29737    1426.2182    101187.72   -119284.95   -85381.979     51.96326 
  897000   -1189.7219    3761.2924    15337.417    4889.5056    159.93603   -96294.431    8663.3497   -87631.082    346.69859    795.67171    100858.42   -119252.86   -86460.715    53.655276 
  898000   -1148.4146    3676.1123    15445.469    4807.8833     169.8222   -96311.616    8620.2629   -87691.353     344.9743    1227.5655    101472.18   -119262.49   -85874.719    53.574981 
  899000   -1100.9664    3632.7872     15462.56    4815.7651    185.83474   -96259.533    8607.3655   -87652.167    344.45816     318.3305    101328.63   -119255.51   -87181.747    53.452851 
  900000   -1100.4465    3680.3785    15469.475    4742.9312    156.04025   -96303.446     8902.341   -87401.105    356.26279     2586.022    100503.75   -119251.82   -83610.658     53.26235 
  901000    -1116.651    3662.2394    15424.146    4807.8489    175.00582   -96314.983    8643.1207   -87671.862    345.88905     251.4508    100605.77   -119267.57   -87302.926    53.211821 
  902000   -1127.8685    3635.0686    15457.684    4753.7215    179.56011   -96321.064    8748.6549   -87572.409    350.11242    2221.3468    101335.72   -119219.23   -84289.531    54.260375 
  903000   -1056.2644    3651.5279    15363.676    4760.6149    163.58048   -96385.639    8831.5755   -87554.063    353.43082    1379.1359    102600.99   -119268.77    -85490.42    53.590798 
  904000   -1145.1575    3696.7709    15413.838    4789.2627    155.10424   -96292.608    8725.9935   -87566.614    349.20553    923.18386    101286.13   -119202.43   -86202.929    52.599078 
  905000   -1151.3086    3669.8735    15494.138    4823.3079    157.96336   -96255.595    8732.2435   -87523.351    349.45565     1191.183    100918.48   -119249.57   -85770.177    52.124721 
  906000   -1130.9554    3657.4699    15460.879     4805.336    164.98639   -96276.731    8744.4778   -87532.253    349.94526    1750.5619    101553.27   -119234.45   -84939.583    52.598536 
  907000   -1202.6207     3731.834    15417.832    4765.2142    157.70874   -96351.614    8819.3672   -87532.247    352.94225    493.93565    100800.17   -119221.58   -86806.129    52.751611 
  908000    -1157.417    3639.2264    15362.244     4788.048    164.72081   -96445.421     8881.132   -87564.289    355.41402    1468.2359    101586.09   -119242.24   -85389.055    53.778534 
  909000   -1179.8994    3684.4462    15491.804    4794.9034    178.42291   -96300.738    8818.3825   -87482.356    352.90285    477.59404     100426.1   -119270.42   -86782.866    52.672164 
  910000   -1164.7298    3707.6534    15400.346    4787.7077    147.07504   -96369.721    8748.2723   -87621.449    350.09711    919.93947    101604.97   -119247.77   -86258.279    52.630005 
  911000   -1128.0757    3680.1243    15414.126    4808.4744     152.5531   -96342.932    8693.7392   -87649.193    347.91475    334.49209       102245   -119270.13   -87150.419    53.229039 
  912000   -1130.0121    3713.9316    15497.027    4806.6727    169.88397   -96225.904    8772.8959   -87453.008    351.08252    293.61722    100956.16   -119283.41   -87020.703    54.534604 
  913000   -1191.5421     3648.734    15339.103    4839.2779    163.92471   -96407.209    8918.2479   -87488.961    356.89936    447.17225    101244.89   -119206.71   -86828.687    53.561879 
  914000   -1140.3512    3651.7534    15322.292    4832.5745      148.904   -96425.584    8685.3204   -87740.264    347.57784    864.47662    100998.46   -119240.76   -86466.925    53.186592 
  915000   -1238.5745    3692.5678    15396.072    4904.7771    159.39498   -96333.855    8799.2549     -87534.6    352.13738    864.09731    99810.291   -119248.09   -86276.793    52.601245 
  916000   -1127.7334    3794.3712    15376.734     4790.422    164.12074   -96254.889    8782.6528   -87472.236    351.47298   -313.17169     101512.8    -119252.8   -87935.874     53.50123 
  917000   -1115.1431    3742.6624    15365.589    4747.4072    160.51128   -96328.969    8637.5583    -87691.41    345.66645    718.10741    102142.97      -119230   -86621.681     53.45298 
  918000   -1145.7387    3654.3848    15423.475    4819.3336    176.13044   -96279.675    8855.6772   -87423.997    354.39535    1304.5418    100899.61   -119207.26   -85504.342    55.309698 
  919000   -1199.8114    3612.4621    15342.315    4867.5059    151.93264    -96464.07    8811.6651   -87652.405    352.63403    1789.2665    100581.67   -119238.47   -85027.765    52.955856 
  920000   -1173.6392    3590.7382    15462.971    4804.3758    167.21509   -96325.612    8871.4329   -87454.179    355.02587    1057.0336    100200.21   -119177.27   -85909.518    53.709703 
  921000   -1206.9494    3733.5906    15417.475    4871.9058    171.19595   -96262.452    8688.7642   -87573.688    347.71565    1565.9832    99862.917   -119249.67   -85292.992    52.500738 
  922000    -1141.363    3676.7912    15393.647    4778.0028    173.83719   -96373.958    8672.7322   -87701.226    347.07407    786.47848    100846.05   -119254.87   -86544.524    52.777236 
  923000     -1159.18    3683.8485    15437.245    4798.7418    164.05306   -96259.027    8756.0565   -87502.971    350.40863    1512.9327    100447.55   -119183.74   -85286.638    53.472167 
  924000   -1172.6526    3709.2383    15345.345    4876.0795    161.11598   -96313.336    8828.8852   -87484.451    353.32316     1350.472    101102.18   -119232.46   -85493.218    54.599011 
  925000   -1154.1276    3643.9781    15393.709    4827.1461    167.78587   -96380.811    8687.4466   -87693.364    347.66293    1276.8633    100301.13    -119259.3   -85825.582    53.785218 
  926000    -1220.751    3693.3462    15349.535    4891.7814    158.26248   -96387.722     8774.219   -87613.503    351.13547    704.41859    100208.99    -119259.9   -86584.034    52.618241 
  927000   -1244.2811    3754.0141    15353.442    4840.2579     177.4296   -96350.989    8812.2063   -87538.782    352.65568    444.49347     101106.9   -119231.85   -86883.359    53.477235 
  928000   -1190.8438    3761.6241    15406.059    4796.0481    168.10475   -96297.379    8778.7807   -87518.599    351.31802    527.23019    100437.39   -119238.37   -86746.325    53.382983 
  929000   -1238.6262    3656.2739    15370.967    4936.5333    179.89866   -96323.633    8708.8739   -87614.759    348.52042    803.63199    100231.46   -119228.68   -86440.032    52.908245 
  930000   -1177.3426    3732.8531    15497.729    4861.2676    164.84789   -96180.767    8729.0831   -87451.684    349.32918    2001.3747    99937.868   -119260.12   -84534.698    52.516995 
  931000    -1212.091    3573.7347    15403.056    4885.8973    165.62239   -96428.086    8696.0437   -87732.042    348.00697     746.6192    100065.61   -119244.31    -86642.46    52.759994 
  932000    -1178.274    3757.6211    15400.185     4856.442    159.91636   -96274.231    8718.7595   -87555.471    348.91604    981.68033    99706.475   -119270.12   -86127.994    51.927065 
  933000    -1186.504    3674.1088    15287.027    4847.6249    167.45708   -96463.136    8857.8563    -87605.28    354.48255    829.02598    99941.965   -119252.85   -86396.932    52.124835 
  934000   -1234.5142    3651.6282    15448.831    4933.3173    170.99343   -96285.325    8760.8903   -87524.435    350.60207    425.89413    100543.52   -119255.58   -86899.936     53.11172 
  935000   -1212.2139    3762.2911    15465.075    4870.5206    164.49468   -96244.839    8800.5144   -87444.325    352.18778    559.90543    100360.03   -119295.01    -86624.82    53.044449 
  936000   -1251.3605    3710.8365    15438.559    4881.5115    172.16849   -96276.693     8640.864   -87635.829    345.79874    1264.7923    98995.849   -119228.41   -85809.781    50.977732 
  937000   -1240.9726     3629.311    15431.224    4843.8131     176.7308   -96397.753    8746.9847   -87650.768    350.04558    825.00143    99983.629   -119237.86   -86447.785      52.7665 
  938000   -1222.7633    3786.7602    15381.088    4878.8536    181.28424   -96267.894    8820.1625   -87447.731    352.97408    968.44468     99510.91   -119273.12   -86042.262    52.835759 
  939000   -1218.8753    3607.7195    15279.253    4933.2209    180.56631   -96458.619    8637.2793   -87821.339    345.65528     143.4203    99550.279    -119240.5   -87613.116    52.311799 
  940000   -1309.7527    3625.5901    15418.992    4922.2744    174.41272   -96372.135    8732.1208   -87640.014    349.45074   -86.595866    99607.174   -119203.65   -87765.809    52.553855 
  941000   -1250.6205    3743.1325    15461.489    4905.6279    169.79939   -96222.086    8747.0256   -87475.061    350.04722    284.58739    100272.17   -119251.51   -87058.889    53.022896 
  942000   -1220.2072    3703.0244    15356.058     4927.944    176.91543   -96273.544    8684.0113   -87589.533    347.52545    895.16066    100898.75   -119217.28     -86272.3    52.734267 
  943000   -1191.6996    3600.7417    15406.686    4859.1283     184.4555   -96398.594    8628.9356   -87769.659    345.32137    2022.0922    100046.89   -119257.91   -84819.262    53.340699 
  944000   -1208.7099    3737.4968    15436.673    4841.3016    178.85532   -96272.128     8688.644   -87583.484    347.71084    904.85956    100583.69   -119257.75   -86256.137    52.387338 
  945000   -1222.1282    3602.0517    15440.563    4896.1163    176.40115    -96361.21    8768.4619   -87592.748    350.90508    992.57558    100650.59   -119254.21    -86135.76    53.409688 
  946000   -1227.5473    3731.6481    15396.137    4832.8385    165.29739   -96377.828    8754.4342   -87623.394     350.3437    -268.5038     100778.4    -119276.2   -88018.027    53.344606 
  947000   -1171.9241    3717.0564    15510.102    4862.2248    168.24335   -96209.135    8787.2832   -87421.851    351.65829    959.47065     100485.8   -119294.84   -86015.764    53.153392 
  948000   -1230.1501    3727.9819    15323.557    4886.7419    155.97664   -96409.129     8789.709    -87619.42    351.75537    479.96638    100054.87   -119273.24   -86919.055    52.502335 
  949000   -1244.6143    3687.8327     15366.08    4840.2774    176.17221   -96443.954     8711.279   -87732.675    348.61668    1628.8891    99707.588    -119269.7   -85364.054    51.921117 
  950000   -1172.6165    3591.1933    15397.828    4805.2418    168.71257   -96458.022    8814.2525    -87643.77    352.73757    817.98071    100019.99   -119248.38    -86450.59    52.708378 
  951000   -1193.6582    3642.9063    15373.742    4828.9799    162.58895   -96475.057     8832.533   -87642.524    353.46914      1823.23    100055.11   -119289.62   -84982.065    53.150231 
  952000   -1250.9294    3689.0845    15443.365    4901.8434    161.89327   -96320.598    8741.8616   -87578.736    349.84056    935.32047    100941.66   -119265.85   -86201.822    52.509676 
  953000   -1207.7707    3682.4011    15357.558    4851.8761    157.53861   -96391.664    8699.2103   -87692.454     348.1337    876.67142    100130.74   -119233.27   -86412.247    52.140895 
  954000   -1224.9204    3645.2712    15351.404    4831.8028     155.5146   -96445.229    8822.2251   -87623.004    353.05663    658.33925    99579.229    -119204.3   -86666.923    52.364851 
  955000   -1278.3748    3759.7247    15338.587    4867.8313    173.30991   -96365.369    8621.9294    -87743.44    345.04099   -366.27752    99256.349   -119226.45   -88273.646    52.916532 
  956000    -1222.375    3682.5535    15387.753    4886.0467    168.93378   -96363.291    8720.1197   -87643.172    348.97047    1343.1591     99904.14    -119266.2    -85686.19    52.151234 
  957000   -1219.2963    3725.4308    15365.645    4869.3407    161.65958   -96375.687    8776.1059   -87599.582    351.21098    2270.7283    99290.271   -119278.47   -84311.461    52.730079 
  958000   -1241.4881    3672.6654    15403.167    4880.1054    149.90338   -96366.391    8655.3243   -87711.067    346.37742    1134.3428    99360.728   -119230.74    -86067.32    53.229489 
  959000   -1203.2594    3680.6929    15410.457    4808.7698    148.84457   -96387.432     8779.218   -87608.214    351.33553    1692.4341    99525.596   -119232.94   -85151.682    53.077441 
  960000   -1239.7039    3650.7964    15333.565    4893.3377    156.17556   -96432.996    8772.4993   -87660.497    351.06665    506.47262    99599.107   -119227.17   -86924.819    52.675508 
  961000   -1224.9948    3602.7828    15427.541    4916.5704    158.28413   -96422.335    8732.2836   -87690.051    349.45726    320.85073     100116.2   -119302.52    -87221.58    53.188329 
  962000    -1164.398    3646.5119    15453.752    4837.1491     157.2672   -96327.827    8748.9217   -87578.906     350.1231    1380.2787    99906.783   -119258.11   -85567.787    52.280854 
  963000   -1239.6598    3724.2017    15359.794     4849.421    163.06572   -96400.276    8668.1319   -87732.144    346.88997    181.07458    100263.22    -119257.1    -87467.37    52.570208 
  964000   -1166.9537    3685.1627    15456.193     4840.666     162.5369   -96311.455     8820.661   -87490.794    352.99403    2667.7843    100454.97   -119289.06   -83582.402    53.508673 
  965000   -1212.9723    3667.0549    15419.443    4868.2069    162.09528   -96351.471    8737.2298   -87614.242     349.6552    266.02038    100356.42    -119255.3   -87224.895    52.748258 
  966000   -1214.5973     3723.092    15362.107    4843.4835    154.32121   -96378.092    8678.4731   -87699.619    347.30381    255.24951    100331.86    -119246.5   -87326.128    53.257611 
  967000   -1177.2275     3622.352    15357.119    4933.6099    166.56126    -96360.97     8807.004   -87553.966    352.44749    1908.8047    99658.861   -119263.38   -84779.667    52.719171 
  968000   -1170.8319    3661.8336    15402.445    4844.9131    184.27123   -96343.524    8803.5758   -87539.948     352.3103    1343.0692    100386.41   -119266.15    -85573.65    53.045251 
  969000   -1145.1778    3787.7258    15361.669    4777.0643    166.88274   -96348.453    8643.8477   -87704.605    345.91814   -42.294345    100064.64   -119296.62   -87766.327    52.410377 
  970000   -1153.0507    3696.3763    15363.175    4869.3707    173.90918   -96244.938    8754.5982    -87490.34    350.35026    1500.3695    100049.86   -119194.72   -85301.114    53.069857 
  971000   -1151.1558    3758.4139    15342.877    4790.6109    140.14388   -96417.567    8719.2375    -87698.33    348.93517    1451.2809    100252.14   -119298.46   -85576.449    53.521933 
  972000   -1228.0916     3743.926    15392.889    4912.3885    178.77229   -96276.496    8947.6954   -87328.801    358.07782    1340.0702    99698.999   -119276.38   -85380.328    53.578698 
  973000   -1164.5137    3606.8522    15353.619    4856.9475    177.01619   -96405.729    8725.5249   -87680.204    349.18678    567.48124    101067.76   -119235.65   -86843.754    53.388812 
  974000   -1193.7786     3714.843    15443.334    4836.0043    169.19516   -96277.983    8766.9957   -87510.988     350.8464    264.15235    99606.605   -119247.58   -87127.264    52.887412 
  975000    -1186.091    3671.7474    15384.505    4860.9154    164.22162   -96385.878    8846.4562   -87539.422    354.02633    873.74565    100212.43   -119281.18   -86262.447    53.342768 
  976000   -1212.0865    3717.7327    15402.297    4836.0781     159.4057   -96362.565    8744.1806   -87618.384    349.93336    1823.8217    99977.932   -119265.99   -84959.114    53.522706 
  977000   -1205.5349    3718.3776    15409.242    4803.5735    167.16295   -96403.447    8755.1264   -87648.321     350.3714   -451.37848    99877.387   -119296.27   -88305.803    52.609156 
  978000   -1221.2866    3759.9981    15373.086    4764.1377    181.58959   -96442.846    8679.9479   -87762.899    347.36283    1265.0011    99645.912   -119300.37   -85924.557    52.739738 
  979000   -1230.0669    3684.7879    15444.548    4834.2261    159.30339   -96317.512    8738.9377   -87578.574    349.72355    328.17539    99798.031   -119210.31   -87100.931    52.749463 
  980000    -1324.015    3670.7767    15360.608    4883.7973    154.13991   -96501.665    8653.5897   -87848.075    346.30801     272.7486    99193.646   -119246.97   -87453.507    53.787634 
  981000   -1173.8103    3675.1926    15381.745    4828.2939    170.52769    -96387.96    8829.9528   -87558.007    353.36588    830.83544    100310.15   -119269.91    -86342.56    53.009405 
  982000   -1173.4762    3647.5032    15301.279    4878.4685    177.51243   -96437.995    8797.4005   -87640.594    352.06317    1764.5035    99385.138   -119269.28   -85083.069    52.726837 
  983000   -1186.1549    3710.8269    15471.258    4805.6026    167.81595    -96252.88    8608.8044   -87644.075    344.51574    1420.7449    99902.509   -119222.23   -85574.085    51.259999 
  984000   -1176.6526    3779.8816    15330.057    4798.5066    160.69761   -96374.094    8679.2736   -87694.821    347.33585    691.95509    100336.87   -119266.58   -86682.275     51.96188 
  985000   -1239.1164    3807.4373    15453.112    4890.9575    167.50398   -96201.081    8727.5441   -87473.536    349.26759    1126.7938    99450.918   -119280.97   -85839.246    51.852103 
  986000   -1224.6596     3704.983    15378.425    4880.8559    163.77977   -96360.995    8664.4404   -87696.555    346.74224    1460.3998     99756.38   -119264.38     -85571.9    51.750532 
  987000   -1195.1762    3715.9378    15341.435    4803.9674    160.67103   -96461.699    8648.7496   -87812.949    346.11431    2075.7909    100276.29   -119288.53   -84777.257    51.713836 
  988000   -1184.3001    3766.6435    15361.923    4830.4749    160.22588   -96325.228    8819.6706   -87505.557     352.9544    1132.4774     100267.3    -119260.2    -85849.54    53.191885 
  989000   -1260.2105    3627.0741    15334.089    4943.7764    175.96185    -96424.32    8711.1036   -87713.216    348.60966    1539.3946    99637.271   -119245.01    -85476.31    51.687597 
  990000   -1147.8005    3646.7844    15436.997    4813.0436    162.80488   -96385.923    8680.4741   -87705.449    347.38389    325.17832    100257.44   -119297.75   -87229.989    52.053562 
  991000   -1290.6601    3703.9347    15461.517    4914.2432    182.62523   -96297.963    8754.5049   -87543.458    350.34653      1086.68    100127.53   -119269.62   -85956.625    52.152232 
  992000    -1203.828    3676.8441    15408.331    4873.0682    173.09232   -96308.521    8822.8125   -87485.708    353.08013    1841.7981    99819.362   -119236.03   -84804.487    52.318311 
  993000   -1209.2318    3727.4918    15320.357    4833.5684    153.48877   -96457.993    8733.4678   -87724.526    349.50465     707.9741    100100.35   -119283.67   -86690.982      52.5843 
  994000   -1201.5847    3712.3616    15319.412    4854.2341    175.20274   -96384.928    8671.1981    -87713.73    347.01268    1375.9295    99896.159   -119244.55   -85709.162    53.271961 
  995000   -1188.1062    3720.6823    15413.734    4838.0918    169.84365   -96301.828    8736.8863   -87564.942    349.64145    995.63504    100220.05   -119256.07   -86109.715    52.342853 
  996000   -1193.8925    3786.0573     15352.66    4849.2004    167.30767   -96316.225    8879.9022   -87436.323     355.3648    780.01309    100557.65   -119277.56    -86292.41    52.798013 
  997000   -1183.3228    3771.4221    15408.685    4786.9153    166.75085   -96346.085    8672.1972   -87673.888    347.05266    557.45533    99896.223   -119296.54    -86861.74    53.340707 
  998000   -1166.8557    3794.0749    15326.666    4851.0686    170.66069   -96298.996    8730.4992   -87568.496    349.38585    729.25657    99868.009   -119274.61   -86506.354    52.130726 
  999000   -1170.5172    3651.2461    15375.788    4797.7979    171.09589   -96426.373    8718.8669   -87707.506    348.92034    533.59478    100519.02   -119251.78   -86925.274    52.314394 
 1000000   -1166.1101    3746.7469    15341.713    4848.0631    153.44902   -96311.923    8793.0134   -87518.909     351.8876    1004.4181    100683.85   -119235.78   -86044.051    54.216336 
 1001000   -1221.4913    3679.0966    15380.293    4888.1027    151.22661   -96310.832    8760.3289   -87550.503     350.5796    848.13994    99773.912   -119188.06   -86316.374    53.630501 
 1002000    -1175.545    3746.0326    15367.129    4882.5112    185.51067   -96257.151    8637.4049   -87619.746    345.66031    577.43995    100520.77   -119262.79   -86773.224    52.683242 
 1003000   -1191.3505    3686.1625    15317.164    4879.3213      175.514   -96425.571    8586.1098   -87839.461    343.60753    964.42543    99646.134   -119292.38   -86437.923    50.553725 
 1004000   -1187.9511    3727.9492    15298.473    4859.5296     155.1455   -96408.572    8742.9242   -87665.648    349.88308    900.76975    100575.24   -119261.72    -86344.41    52.277973 
 1005000   -1181.9486    3684.6163    15478.588    4817.1212    172.10748   -96290.665    8648.2656   -87642.399    346.09494    1359.5048    99668.158   -119261.15    -85666.28    51.682196 
 1006000   -1271.2209    3690.6586    15263.212     4869.794    162.47401    -96553.25    8751.3279   -87801.922    350.21939   -231.21397    99506.964   -119268.17   -88137.461    51.814371 
 1007000   -1174.1583    3735.5868    15363.696    4859.6062    162.54317   -96336.439    8725.5799   -87610.859    349.18898     1727.542    99893.482   -119283.71   -85094.099    52.664696 
 1008000   -1204.4588    3556.7108    15361.217    4750.2139    146.56673   -96658.148    8603.2977    -88054.85    344.29537    263.28841    99910.149    -119268.4   -87671.216    52.188199 
 1009000   -1184.5603    3732.7062    15361.071    4808.9885    161.73314   -96397.414    8793.2949   -87604.119    351.89887    478.04353     100195.7   -119277.35   -86905.577    52.760943 
 1010000   -1210.7546    3589.5159    15453.974    4770.0813    163.00949   -96511.834    8668.6546   -87843.179    346.91089    482.36822    100725.54   -119277.66    -87134.59    53.088909 
 1011000   -1224.0334    3574.7161    15448.142    4812.8881    158.75689   -96429.843    8882.5817   -87547.261    355.47204    874.68094    100410.42   -119200.31   -86266.393    52.570061 
 1012000   -1124.2515    3627.1358    15382.433    4829.2453      170.779   -96382.047    8668.4812   -87713.566    346.90395    2048.6649    99933.524   -119267.39   -84727.785     52.73276 
 1013000   -1163.4017    3696.5851        15419    4823.2182    173.82411   -96279.767    8751.7037   -87528.063    350.23443    730.79861    99960.538   -119228.99   -86462.689      53.0148 
 1014000   -1209.0057    3643.7048    15528.239     4823.932    161.80807   -96331.577    8670.9497   -87660.627    347.00274    1264.3573    100113.92   -119280.25   -85814.591    53.209408 
 1015000   -1187.5084     3703.695    15406.988    4839.9953    163.98498   -96343.784     8704.526   -87639.258    348.34643    2149.2689    100315.62   -119270.94   -84494.877    52.388038 
 1016000    -1146.102    3718.6212    15408.628    4863.4972    160.61681   -96205.311    8631.7717   -87573.539    345.43487    1070.4011    101433.05   -119210.57   -85990.098    53.402671 
 1017000   -1149.3787    3697.4462     15483.15    4800.7265    161.28205   -96258.556     8678.948   -87579.608    347.32282    904.80099    100762.01   -119251.78   -86249.994    53.920983 
 1018000   -1168.6863    3809.5222    15423.073    4732.1113    165.53252   -96295.798    8808.2668   -87487.531    352.49803    702.16363    100457.94   -119257.35   -86458.808    53.291962 
 1019000    -1211.061    3687.2326    15355.441    4792.6965    168.48644   -96448.389    8759.6717   -87688.718     350.5533    1539.4098    99590.907   -119241.18   -85452.831     52.19414 
 1020000    -1212.568    3787.2974    15357.095    4765.1728    164.22046   -96390.076    8785.9791   -87604.097     351.6061    177.58464    99799.489   -119251.29   -87345.628    52.975866 
 1021000     -1232.44    3659.0099    15340.714    4854.4893    171.46984   -96472.027    8613.9238   -87858.104    344.72062    1351.7467    99437.052   -119265.27   -85897.818    53.263463 
 1022000    -1142.007    3792.3784     15432.77    4847.2827    153.41194   -96230.107    8754.1925   -87475.914    350.33403    471.95352    101020.76   -119313.94   -86780.593      52.1523 
 1023000   -1140.1631    3674.6472    15432.317    4762.1727    165.96159   -96344.307    8686.5133   -87657.794    347.62557     801.3004       101026   -119239.24    -86477.19    52.168289 
 1024000   -1177.0186    3742.1317    15527.101    4770.0395    168.75786   -96213.233    8759.0349   -87454.198    350.52782    1785.4824    99714.021   -119244.24   -84857.702    53.552895 
 1025000   -1126.1031    3597.6039    15486.059    4761.2341    158.63534   -96401.448    8746.6303   -87654.817     350.0314    1967.3992    100056.86   -119278.88   -84783.936    52.672103 
 1026000   -1199.4746    3713.6046    15451.105    4772.2094    161.14315   -96315.584    8720.3203   -87595.264     348.9785    699.35613    100841.09   -119214.17   -86566.746    52.605669 
 1027000   -1127.1864    3588.4842    15496.394    4804.3294    164.66442   -96351.319     8701.278   -87650.041    348.21644     2150.259     100324.3   -119278.01   -84503.939    53.379584 
 1028000   -1166.3172    3649.6365    15418.479    4826.3298    154.72873   -96368.683    8780.3236    -87588.36    351.37977    1613.3952     99718.01   -119251.54   -85242.023    52.949336 
 1029000   -1183.9857    3540.5389    15430.715    4798.3888    168.88505   -96503.741    8739.9333   -87763.808    349.76339    598.64958    100500.09   -119258.28   -86886.372    53.838099 
 1030000   -1177.2521    3651.9097    15371.012    4811.4338     168.9423   -96436.604    8687.9107   -87748.694     347.6815    1370.7452     100077.3   -119262.65   -85748.057    53.320699 
 1031000   -1177.5021    3745.4535    15481.011    4805.9522    152.23028   -96260.195    8728.5262   -87531.669    349.30689    1065.0979     100152.1   -119267.34    -85975.97    52.837157 
 1032000   -1152.9672    3718.8304    15405.539    4836.4724    169.38724   -96247.962    8621.8166   -87626.145    345.03648    791.87722    101284.61   -119225.22   -86456.438    52.006477 
 1033000   -1164.8019    3674.6659    15452.524    4834.3988    176.51031    -96299.57    8805.0416   -87494.528    352.36896    893.09296     99332.91   -119272.87   -86200.732    52.607758 
 1034000   -1212.3641     3730.924    15407.916    4780.0942    163.18289   -96416.642     8702.797   -87713.845    348.27723    -3.218928    100636.54    -119286.4   -87718.569    52.965731 
 1035000   -1178.8031     3713.185    15299.525    4930.3163     168.6304   -96288.416    8727.3677   -87561.048    349.26053   -106.57157    100352.59   -119221.27    -87717.02    53.072654 
 1036000   -1192.6772    3676.1421    15438.968    4782.7345    167.67115    -96327.61    8814.0019   -87513.608    352.72754    140.92695    100718.32   -119200.45   -87306.604    53.126585 
 1037000    -1233.686    3625.5593     15519.42    4825.1083    149.41381   -96346.366    8560.0696   -87786.296    342.56542    1673.8998    99954.636   -119232.18   -85346.193    52.224298 
 1038000   -1142.6813    3709.7446    15327.007     4803.422    157.33736   -96387.169    8859.5318   -87527.637     354.5496    219.01312       100174      -119242   -87207.674     52.13829 
 1039000   -1146.2586    3685.9309    15411.905    4766.1533    181.74452   -96346.396    8823.1384   -87523.258    353.09318    1157.7941    100936.54   -119245.87    -85818.92    52.638375 
 1040000   -1196.2701    3700.4642    15485.085    4834.7215    164.65144   -96289.813    8816.9102   -87472.903    352.84393    1434.6423    100638.36   -119278.46   -85367.268     52.30958 
 1041000   -1103.9254    3747.8258    15342.768    4789.8544    179.94814   -96321.536    8795.6522   -87525.884    351.99321    560.78538    100291.36   -119278.01   -86705.653    52.477227 
 1042000   -1156.5196    3709.3227    15370.747    4799.7761     162.8673   -96349.634    8722.0991   -87627.535    349.04968    2389.9657     100646.1   -119235.83   -84119.495    52.142797 
 1043000   -1143.0778     3744.121    15393.167    4741.6985    158.82782   -96364.439    8770.5577   -87593.882    350.98895    1402.2128    100436.32   -119259.18   -85539.975    50.197933 
 1044000   -1235.7126    3722.7671    15416.998    4834.5832    160.39434    -96299.76     8754.341   -87545.419    350.33997   -325.24867    100344.78   -119198.79   -88021.396    52.033525 
 1045000   -1171.0916    3722.1651    15319.852    4820.7203    157.57751   -96400.597    8772.1741   -87628.423    351.05363    1435.1945    100278.15   -119249.82   -85529.517    52.182806 
 1046000   -1154.8446    3583.3332    15396.231    4775.6805    160.02697   -96518.337     8736.495   -87781.842    349.62579    2200.7048    99945.275   -119278.76   -84574.096    52.012891 
 1047000   -1114.5487    3720.8686    15433.457    4764.5008    151.15759   -96270.588    8691.3735   -87579.215    347.82008    505.37346    101195.53   -119226.02   -86833.368    53.002987 
 1048000   -1171.9951    3645.2681    15476.952    4788.1375    192.91251   -96302.006    8797.1564   -87504.849     352.0534    1311.9919    100673.34   -119233.28    -85578.56    53.115134 
 1049000   -1197.0334    3651.4849    15360.487    4840.7735     161.7478   -96446.983    8699.3144   -87747.668    348.13786    1734.6134    100794.51   -119264.44   -85197.813    52.424565 
 1050000   -1127.2453    3722.6715    15336.372    4805.4921    155.00593   -96306.067    8792.6434   -87513.424     351.8728    577.55005     100475.5   -119198.36   -86667.121    52.497277 
 1051000   -1256.2075    3655.3879    15372.337    4870.1206    174.35536   -96411.845    8779.0252    -87632.82    351.32781    768.19438    99653.436   -119227.84    -86516.37    52.035626 
 1052000   -1171.1442    3704.9452    15386.833    4764.8371    176.13762   -96357.753    8772.8945   -87584.859    351.08247    540.92056    100119.74   -119219.36   -86795.037    52.563733 
 1053000    -1197.434    3762.2571    15456.373    4750.1639    170.79501   -96281.612    8794.5366   -87487.075    351.94856    113.58364    100952.91   -119223.77   -87319.847    52.515834 
 1054000   -1150.6019    3722.1307    15368.833    4845.8705    183.67503   -96255.709    8895.1548   -87360.554     355.9752    39.162361    101767.94   -119225.62    -87302.43    53.322021 
 1055000   -1223.5008    3683.7844    15398.929    4864.1609    166.16839   -96329.369    8742.5013   -87586.867    349.86616    218.83289    100889.27   -119218.91   -87264.884     52.69391 
 1056000   -1233.9526    3705.6418    15378.254    4847.4113    168.03379    -96389.03    8626.2148   -87762.815    345.21249   -823.28846    100720.99   -119254.42   -88972.153    53.132263 
 1057000   -1193.8171    3664.1805      15398.2    4884.8019    163.26331   -96332.335    8789.0563   -87543.279    351.72924    671.01471    100072.98   -119248.96   -86563.958    53.115469 
 1058000   -1226.0181    3731.9206    15501.595    4893.3461    161.61228    -96212.53    8750.5011   -87462.029     350.1863    563.25071    99734.084   -119274.99    -86642.77    52.091152 
 1059000   -1232.4865      3667.16    15433.093    4822.1142    178.94929   -96363.345    8680.7901   -87682.555    347.39654   -18.697557     99861.04   -119232.18   -87709.785    52.588232 
 1060000   -1249.4792     3693.426    15541.177    4845.9477    170.61144   -96280.926     8730.185   -87550.741    349.37327     898.1346    100106.37   -119282.61    -86239.51    54.589104 
 1061000   -1263.1774    3649.3782    15348.339    4928.1343    153.71633   -96462.179    8755.1882    -87706.99    350.37388    1021.6507    99271.941   -119278.57   -86227.865    54.410883 
 1062000   -1154.3956    3702.4748    15410.715    4809.6113    156.53393   -96263.821    8856.3076   -87407.514    354.42057    523.87714    100784.17   -119188.76   -86637.501      53.3403 
 1063000   -1219.3007    3764.9728    15375.974    4849.2228    167.94026   -96296.168    8646.3211   -87649.846    346.01713    520.27692    100030.19   -119234.98   -86890.847     53.62898 
 1064000   -1199.0431    3698.8833    15495.401    4866.4746    148.31003   -96220.598     8760.511   -87460.087    350.58689    1170.9306    99249.596   -119230.62    -85765.22     53.51735 
 1065000   -1214.7129    3738.6534    15415.667    4804.0472    169.50539   -96321.639     8763.699    -87557.94    350.71447    809.83834    100070.65    -119234.8    -86376.04    53.982674 
 1066000   -1235.4877    3756.9796    15352.505    4843.5563    170.25787   -96321.095    8696.9794   -87624.115    348.04442   -503.50627    100738.95   -119208.91   -88363.854    52.056397 
 1067000   -1227.0333    3698.2969    15411.844    4884.1869    167.11312   -96299.526    8687.3527   -87612.173    347.65917    1619.2121    99419.991   -119233.93   -85264.415    53.325993 
 1068000   -1247.2774    3760.5126    15445.959    4812.0255    153.96963   -96321.443    8609.0794   -87712.363    344.52675    11.031783    99444.033   -119246.63   -87696.364    52.961574 
 1069000   -1257.5306    3733.4949    15489.555    4716.9485    177.27004   -96363.609     8763.933   -87599.677    350.72383    152.22916    99882.148   -119223.35   -87377.928    53.166764 
 1070000   -1218.5983    3709.3641    15351.221    4735.5814    177.28351   -96422.133    8677.1179   -87745.015    347.24958     1624.116    99832.653   -119176.98   -85380.372    53.589572 
 1071000   -1253.9628    3665.7646    15468.841    4829.7361    174.14301   -96351.656    8827.0194   -87524.637    353.24849    625.25713     99964.76   -119236.18   -86613.085    52.722333 
 1072000   -1236.0704     3807.185    15437.208    4801.1861    143.36881   -96331.549    8632.9368   -87698.612     345.4815    576.09502    100189.14   -119284.43   -86856.847    52.514224 
 1073000   -1200.5986    3676.3303    15417.189    4774.8497    164.54393   -96426.468    8702.7857   -87723.682    348.27678    1915.3945    100243.58   -119258.78   -84923.472    53.519851 
 1074000   -1252.6391    3858.0326    15456.036    4834.5825    176.95311   -96163.956    8648.0211   -87515.935    346.08515    934.15926    99470.829   -119236.92   -86160.769    52.852038 
 1075000   -1224.5415    3670.4177    15482.484    4808.4209    159.52719   -96332.704    8605.6728   -87727.031    344.39042    312.96021    100054.14   -119229.01   -87270.363    52.588774 
 1076000   -1145.3453    3672.5815    15462.103     4797.423    160.76829   -96339.372    8765.5603   -87573.812    350.78896    1105.0407    100626.69    -119286.9   -85952.124    52.460751 
 1077000   -1240.2024    3611.0683    15495.766    4829.6027    159.86524    -96417.39    8858.8886   -87558.501    354.52386    2133.4358    99686.117   -119273.49    -84456.87    52.521469 
 1078000   -1182.0582    3668.1998    15509.542    4824.6994    158.48339   -96312.263    8762.1216   -87550.141    350.65134    3236.1874    99313.557   -119291.13   -82862.891    52.967818 
 1079000   -1256.9067    3650.0783    15355.815    4812.4118    162.82458   -96527.003    8827.7769   -87699.226     353.2788   -501.30013    99884.624   -119251.23   -88429.477    52.886467 
 1080000   -1246.6018    3695.4237    15412.081    4874.1882    161.72112   -96395.142    8771.6251   -87623.517    351.03167    936.58614    98964.114   -119291.95   -86271.751    52.745173 
 1081000   -1211.5848    3724.5317    15375.599    4902.2138    162.41324   -96293.198    8799.2779    -87493.92     352.1383    706.15315    99796.867   -119246.37    -86466.16    52.326551 
 1082000    -1214.332    3644.0194     15403.57    4941.1159    166.20303    -96303.21    8754.2121   -87548.997    350.33482    1634.2224    99518.954   -119243.79   -85177.117    52.289028 
 1083000    -1216.367     3695.344    15454.591    4873.9224    158.99859   -96307.277    8703.6416   -87603.635    348.31103    785.83581    99844.603   -119273.77   -86459.355     52.93491 
 1084000   -1251.2293    3736.8181    15438.735    4850.0443    171.74882   -96325.598     8838.017   -87487.581     353.6886    116.86823    99461.796   -119271.72   -87318.058    52.669015 
 1085000   -1185.0548    3671.0269    15503.522    4764.3381      166.526   -96294.759    8685.3358   -87609.424    347.57845    1294.3658    98850.579   -119215.12   -85743.422    51.432159 
 1086000   -1202.6679    3725.8342    15378.286    4863.6794    170.49359   -96316.186    8678.2854     -87637.9     347.2963     1348.418    99482.993   -119251.81   -85681.538    51.532736 
 1087000    -1159.228    3609.0541    15305.477     4800.297    164.37545   -96501.929    8762.0582   -87739.871    350.64881    1409.2216    100277.88    -119221.9   -85678.955    52.795027 
 1088000   -1225.8257    3712.8518     15387.81    4822.3433    168.88832   -96355.228    8707.9706   -87647.257    348.48427    1722.4094    100034.78    -119221.3   -85134.426    52.817781 
 1089000   -1200.2541    3706.5063    15344.112    4830.7162    175.99214   -96419.817    8763.7095   -87656.108    350.71489    657.59173     99916.36   -119276.89    -86697.88    51.949763 
 1090000   -1207.7581    3782.7266    15439.998    4730.4692    177.93367   -96337.511    8751.2481   -87586.263     350.2162     1238.457    99044.967   -119260.88    -85797.35    51.393776 
 1091000   -1239.9998    3810.3701    15458.178    4836.9582    180.56387   -96242.815    8763.6162   -87479.199    350.71116    1451.7536    100135.42   -119288.89   -85359.098    52.293794 
 1092000   -1217.6716    3672.0781    15375.375     4793.876    169.16228   -96426.107    8876.9681   -87549.139    355.24738    1510.2265    99170.953   -119218.93   -85364.889    51.645109 
 1093000    -1208.915     3702.605     15414.51    4758.9301    152.67477   -96474.597      8676.76   -87797.837    347.23526    1591.7353    99508.697    -119294.4   -85487.859     52.29573 
 1094000   -1237.8545    3715.1547    15385.764    4881.6019    164.27768   -96330.749     8797.644   -87533.105    352.07292    843.84719    100293.33   -119239.69    -86298.83    52.657511 
 1095000    -1153.031    3695.0849    15416.547    4792.9699    160.53613   -96364.874    8940.4831   -87424.391    357.78919     2086.033    99432.411   -119276.98   -84399.394    52.085965 
 1096000   -1252.0848    3673.4626     15467.93    4863.7737    189.25716   -96333.329    8714.9327   -87618.396    348.76289    1173.6906    100042.91   -119275.67   -85905.954    53.017864 
 1097000   -1209.9062    3725.5793    15402.083    4786.7123    152.39334   -96453.569    8684.7289    -87768.84    347.55416    478.32386    100071.98   -119310.43   -87070.752    52.289099 
 1098000   -1226.1366    3645.3897    15423.196    4847.7736     165.6182   -96371.235    8779.3432   -87591.892    351.34053    673.84451    99921.606   -119227.08    -86609.93    51.663295 
 1099000   -1243.7919    3687.5452    15361.162    4839.3229     162.6316   -96433.542     8672.117   -87761.425    347.04945    1080.3758    99637.773   -119240.41   -86191.515    53.332079 
 1100000   -1194.7704    3554.4463    15459.529    4741.0145    166.78098   -96486.348    8836.8444   -87649.504    353.64167    1596.4904    98623.637   -119213.35   -85353.233    51.958576 
 1101000   -1251.6548    3700.2087    15411.748    4779.5011    161.29651   -96464.669    8691.5077   -87773.162    347.82545     861.8768    99885.313   -119265.77   -86517.644    52.062294 
Loop time of 9427.08 on 56 procs for 500000 steps with 8384 atoms

Performance: 4.583 ns/day, 5.237 hours/ns, 53.039 timesteps/s
97.6% CPU use with 56 MPI tasks x no OpenMP threads

MPI task timing breakdown:
Section |  min time  |  avg time  |  max time  |%varavg| %total
---------------------------------------------------------------
Pair    | 5573.8     | 6419       | 7163       | 477.0 | 68.09
Bond    | 162.78     | 211.01     | 264.35     | 184.4 |  2.24
Kspace  | 1148.8     | 1931.3     | 2827.9     | 909.9 | 20.49
Neigh   | 90.61      | 90.956     | 91.334     |   3.0 |  0.96
Comm    | 102.14     | 125.49     | 171.5      | 167.5 |  1.33
Output  | 0.036279   | 0.036674   | 0.04577    |   0.6 |  0.00
Modify  | 481.14     | 607.55     | 666.2      | 213.2 |  6.44
Other   |            | 41.73      |            |       |  0.44

Nlocal:        149.714 ave         170 max         125 min
Histogram: 2 1 3 9 12 7 7 5 6 4
Nghost:        5908.52 ave        6008 max        5779 min
Histogram: 1 3 3 6 6 9 11 10 6 1
Neighs:        72264.0 ave       83358 max       59976 min
Histogram: 3 1 8 7 9 7 4 8 4 5

Total # of neighbors = 4046785
Ave neighs/atom = 482.67951
Ave special neighs/atom = 6.1984733
Neighbor list builds = 19706
Dangerous builds = 0
write_data      data_3_100MPa.*
System init for write_data ...
PPPM initialization ...
  using 12-bit tables for long-range coulomb (../kspace.cpp:340)
  G vector (1/distance) = 0.27487514
  grid = 45 50 54
  stencil order = 5
  estimated absolute RMS force accuracy = 0.0002331963
  estimated relative force accuracy = 7.0226373e-07
  using double precision FFTW3
  3d grid and FFT values/proc = 8700 2520
WARNING: Not all mixed pair coeffs generated from mixing. Use write_data with 'pair ij' option to store all pair coeffs. (../write_data.cpp:312)
unfix 1


#-------------------------------------------------------------------------------
shell cat log.lammps | grep -v '[a-zA-Z]' | grep -v '^[[:space:]]*$' | grep -v '}' | grep -v '^-*$' | grep -v '^#*$' | grep -v '#-' | tail -n +4 > lmps-${PRES}.dat
ERROR on proc 0: Substitution for illegal variable PRES (../input.cpp:617)
